ATOMIC_SPECIES
Cu  63.5460 ../pporb/Cu_ONCV_PBE-1.0.upf auto
C  12.0110 ../pporb/C_ONCV_PBE-1.0.upf auto
O  15.9990 ../pporb/O_ONCV_PBE-1.0.upf auto
H   1.0080 ../pporb/H_ONCV_PBE-1.0.upf auto

NUMERICAL_ORBITAL
../pporb/Cu_gga_8au_100Ry_4s2p2d1f.orb
../pporb/C_gga_7au_100Ry_2s2p1d.orb
../pporb/O_gga_7au_100Ry_2s2p1d.orb
../pporb/H_gga_6au_100Ry_2s1p.orb

LATTICE_CONSTANT
1.8897261258

LATTICE_VECTORS
       10.0867000000        0.0000000000        0.0000000000
       -5.0433500000        8.7353390000        0.0000000000
        0.0000000000        0.0000000000       32.1768000000

ATOMIC_POSITIONS
Cartesian

Cu #label
0.0000   #magnetism
64 #number of atoms
        0.0000000000        0.0000000000        0.0000000000 m 0 0 0
        2.5216245665        1.4559189511        2.0589934320 m 0 0 0
       -0.0350545887        2.9573816654        4.0174284204 m 1 1 1
        0.0070410668       -0.1987892212        6.2559713302 m 1 1 1
       -1.2608375000        2.1838347500        0.0000000000 m 0 0 0
        1.2607870665        3.6397537011        2.0589934320 m 0 0 0
        1.3036237643        0.6577050708        4.1872292109 m 1 1 1
        8.7688412952        2.0540412949        6.2895295315 m 1 1 1
        1.2608375000        2.1838347500        0.0000000000 m 0 0 0
       -1.2608879335        3.6397537011        2.0589934320 m 0 0 0
        3.7924496597        0.7887837389        4.1198102857 m 1 1 1
        1.1765675459        2.0674103224        6.3457720914 m 1 1 1
        2.5216750000        0.0000000000        0.0000000000 m 0 0 0
       -0.0000504335        1.4559189511        2.0589934320 m 0 0 0
        2.3808084401        2.8877337362        4.1515866644 m 1 1 1
        2.4690326703       -0.1810768048        6.0990231795 m 1 1 1
        5.0433500000        0.0000000000        0.0000000000 m 0 0 0
        7.5649745665        1.4559189511        2.0589934320 m 0 0 0
        4.9879002860        2.7826096194        4.2266176700 m 1 1 1
        5.0365917247       -0.0538508059        6.3469070739 m 1 1 1
        3.7825125000        2.1838347500        0.0000000000 m 0 0 0
        6.3041370665        3.6397537011        2.0589934320 m 0 0 0
        6.2972035841        0.7527273834        4.0950806008 m 1 1 1
        3.6192459838        2.0495400463        6.2039342003 m 1 1 1
        6.3041875000        2.1838347500        0.0000000000 m 0 0 0
        3.7824620665        3.6397537011        2.0589934320 m 0 0 0
        8.8123847152        0.7639988001        4.1903689312 m 1 1 1
        6.2087835920        2.0989867123        6.3998359959 m 1 1 1
        7.5650250000        0.0000000000        0.0000000000 m 0 0 0
        5.0432995665        1.4559189511        2.0589934320 m 0 0 0
        7.5682309642        2.9560479378        4.1177260091 m 1 1 1
        7.4282742637       -0.0739718454        6.1725433242 m 1 1 1
        7.5650250000        4.3676695000        0.0000000000 m 0 0 0
       -0.0000504335        5.8235884511        2.0589934320 m 0 0 0
       -2.4811925718        7.1978118205        4.1896897800 m 1 1 1
       -2.4555298918        4.2445304868        6.2906952484 m 1 1 1
        6.3041875000        6.5515042500        0.0000000000 m 0 0 0
       -1.2608879335        8.0074232011        2.0589934320 m 0 0 0
       -1.3122824356        5.0686319810        4.0972034742 m 1 1 1
       -3.7501799179        6.4626903489        6.1886434549 m 1 1 1
       -1.2608375000        6.5515042500        0.0000000000 m 0 0 0
       -3.7825629335        8.0074232011        2.0589934320 m 0 0 0
        1.2008468004        5.1337681003        4.0091640130 m 1 1 1
       -1.2421261118        6.4117373085        6.1423678489 m 1 1 1
        0.0000000000        4.3676695000        0.0000000000 m 0 0 0
       -2.5217254335        5.8235884511        2.0589934320 m 0 0 0
       -0.0834809964        7.3300231661        4.2672557221 m 1 1 1
        0.0141253503        4.2468327772        6.3698767202 m 1 1 1
        2.5216750000        4.3676695000        0.0000000000 m 0 0 0
        5.0432995665        5.8235884511        2.0589934320 m 0 0 0
        2.4479144937        7.2533858609        4.1028423831 m 1 1 1
        2.5096866229        4.3235679410        6.2158297843 m 1 1 1
        1.2608375000        6.5515042500        0.0000000000 m 0 0 0
        3.7824620665        8.0074232011        2.0589934320 m 0 0 0
        3.7947765008        5.0024611351        4.0588713763 m 1 1 1
        1.2362759074        6.4071883981        6.2875599645 m 1 1 1
        3.7825125000        6.5515042500        0.0000000000 m 0 0 0
        1.2607870665        8.0074232011        2.0589934320 m 0 0 0
        6.3223675332        5.0518715365        4.1300494197 m 1 1 1
        3.6094753305        6.4929215714        6.1788389972 m 1 1 1
        5.0433500000        4.3676695000        0.0000000000 m 0 0 0
        2.5216245665        5.8235884511        2.0589934320 m 0 0 0
        5.0812206037        7.2486406766        4.0782930901 m 1 1 1
        5.0008208312        4.1919212859        6.3832094593 m 1 1 1

C #label
0.0000   #magnetism
1 #number of atoms
        4.4565129039        3.8797796320        8.3010945032 m 1 1 1

O #label
0.0000   #magnetism
28 #number of atoms
        4.5193432445        2.9865153460        9.1156517164 m 1 1 1
        3.7599005347        7.1045928350       12.4850746428 m 1 1 1
        2.7486844680        4.0491963227       15.8690876845 m 1 1 1
        1.0999620990        2.5262277167        9.0362168379 m 1 1 1
        4.7533032106        7.7603328948       15.2803848760 m 1 1 1
        0.8534758237        5.9333056961       16.0438080909 m 1 1 1
        6.7821527145       -2.5733223120       10.0168380232 m 1 1 1
        6.7657853647        2.6346066384       15.2459951463 m 1 1 1
        3.2229853901        4.4122621591       13.2173178394 m 1 1 1
        5.4473361245       -0.2987098247        9.6580549241 m 1 1 1
        5.2692316017        4.2903287265       16.7082420982 m 1 1 1
        9.5868151551        1.2037382029       11.9472986632 m 1 1 1
       -0.8848479412        2.8111102948       14.0127599986 m 1 1 1
        4.7764862967        0.7588260864       12.0327977214 m 1 1 1
        5.8227007002        8.5753305733        9.0248671802 m 1 1 1
       -1.7211574926        3.8453124574        9.5371898626 m 1 1 1
       -1.8912942964        1.0426347422        9.3591459958 m 1 1 1
        1.2049704350        1.5553521536       15.1991305110 m 1 1 1
        7.2059200582        9.6282738593       12.9096450103 m 1 1 1
        1.2866103465        7.7015283312       13.1022246309 m 1 1 1
        7.8000540035        6.9853905133       12.0211944043 m 1 1 1
        1.1356143236        4.0246142975       11.4761300073 m 1 1 1
       -0.2774702319        5.4149293867       13.2336310973 m 1 1 1
        5.5329853057        3.1216832428       12.9635488960 m 1 1 1
        8.2191674309        6.9461813194        9.3613757105 m 1 1 1
        6.4374591003        4.8619643388       11.1791807152 m 1 1 1
        4.2610290260        6.5070350400        9.9372198475 m 1 1 1
        1.9779461275        8.4387834833       15.7477322911 m 1 1 1

H #label
0.0000   #magnetism
55 #number of atoms
        2.8400094872        7.3235968334       12.7015541058 m 1 1 1
        3.9222045757        7.0265850073       11.5212106884 m 1 1 1
        2.4478520760        3.0588371026       15.8010445093 m 1 1 1
        3.6950012103        4.1052559181       16.1582706596 m 1 1 1
        1.1290026345        2.8333403079        9.9730667203 m 1 1 1
        0.3915308275        3.0609351285        8.6037218326 m 1 1 1
        4.5449287624        7.5734473946       14.3035063002 m 1 1 1
        1.6266189848        5.2888980531       16.0967013202 m 1 1 1
        0.3814712004        5.7289628280       15.2204143189 m 1 1 1
        6.3574474658       -1.7188169412       10.3595885557 m 1 1 1
        6.4136116006       -2.7645659082        9.1472699687 m 1 1 1
        1.4836051958        7.6481343644       16.1619129798 m 1 1 1
        7.7618467509        2.6209860002       14.9513139833 m 1 1 1
        6.7058271094        1.8053286004       15.7478663025 m 1 1 1
        2.9737738820        4.3369955091       14.1664781222 m 1 1 1
        3.5229529467        5.3327923736       13.0416500388 m 1 1 1
        5.1234364731        0.2012119005       10.4550322188 m 1 1 1
        6.1274857134        0.1991479584        9.2139388256 m 1 1 1
        5.7507495181        3.6723416385       16.1425005180 m 1 1 1
        5.7564629216        5.1192848656       16.7050929894 m 1 1 1
       -0.8336796235        1.3598359386       11.0563858745 m 1 1 1
        9.1338360878        2.4176121550       13.1187264911 m 1 1 1
       -0.6349717494        3.7752921933       13.8302124406 m 1 1 1
        5.0230259925        1.7178116242       12.2161735204 m 1 1 1
        3.7787196605        0.7770336059       12.3857228765 m 1 1 1
        6.6996794235        8.0915244312        9.0318958189 m 1 1 1
       -3.9854786435        9.5516467196        9.2043046015 m 1 1 1
       -1.3401402700        4.6734610710        9.1355757455 m 1 1 1
       -2.4389093206        4.2159007428       10.1153882645 m 1 1 1
       -1.2278849998        0.7986118066        8.7524224634 m 1 1 1
        0.8089812456        0.6570639460       15.3647493731 m 1 1 1
        0.4783421182        2.2170379498       14.9486049817 m 1 1 1
        6.3564403849        9.7668112549       12.3806769770 m 1 1 1
        6.9263294711        9.7377379828       13.8480941789 m 1 1 1
        0.7044533973        6.9127713352       13.1403513450 m 1 1 1
        7.3530439056        7.7680452718       12.5529889384 m 1 1 1
        7.1199834575        6.2189129473       11.7999153791 m 1 1 1
        1.4184565690        4.7845062273       10.8510653296 m 1 1 1
        1.9361069877        3.9665252265       12.0440270224 m 1 1 1
       -1.1571812987        5.7523692104       12.8862365965 m 1 1 1
        0.0909657113        4.9125788553       12.4895946251 m 1 1 1
        6.0241099908        2.8328384742       13.8006404477 m 1 1 1
        4.7236878557        3.5864425725       13.2249454059 m 1 1 1
       -1.2305381364        7.6728368680        9.1352570088 m 1 1 1
        8.1747402503        6.9274945261       10.4324109848 m 1 1 1
        5.7417511754        5.1064624388       10.5839310826 m 1 1 1
        6.0631133507        4.1238475131       11.8252921539 m 1 1 1
        3.3382292291        6.6128872294        9.6948873343 m 1 1 1
        4.3594490123        4.9662655650        8.6691465475 m 1 1 1
        9.3390769701        0.2806742208       12.1459479484 m 1 1 1
       -2.0260591911        2.0219092229        9.2435773187 m 1 1 1
        1.7096315447        8.2043406098       14.8761777100 m 1 1 1
        3.8636935450        7.9769962478       15.6418834885 m 1 1 1
        0.6891208576        8.4146830065       12.7246423143 m 1 1 1
        4.7220501460        7.2592187492        9.4963248974 m 1 1 1
