ATOMIC_SPECIES
Cu  63.5460 ../pporb/Cu_ONCV_PBE-1.0.upf auto
C  12.0110 ../pporb/C_ONCV_PBE-1.0.upf auto
O  15.9990 ../pporb/O_ONCV_PBE-1.0.upf auto
H   1.0080 ../pporb/H_ONCV_PBE-1.0.upf auto

NUMERICAL_ORBITAL
../pporb/Cu_gga_8au_100Ry_4s2p2d1f.orb
../pporb/C_gga_7au_100Ry_2s2p1d.orb
../pporb/O_gga_7au_100Ry_2s2p1d.orb
../pporb/H_gga_6au_100Ry_2s1p.orb

LATTICE_CONSTANT
1.8897261258

LATTICE_VECTORS
       10.0867000000        0.0000000000        0.0000000000
       -5.0433500000        8.7353390000        0.0000000000
        0.0000000000        0.0000000000       32.1768000000

ATOMIC_POSITIONS
Cartesian

Cu #label
0.0000   #magnetism
64 #number of atoms
        0.0000000000        0.0000000000        0.0000000000 m 0 0 0
        2.5216245665        1.4559189511        2.0589934320 m 0 0 0
       -0.0283118610        2.7792270112        4.1140666461 m 1 1 1
        5.0175377244        8.6648646810        6.1730424205 m 1 1 1
       -1.2608375000        2.1838347500        0.0000000000 m 0 0 0
        1.2607870665        3.6397537011        2.0589934320 m 0 0 0
        1.2535497037        0.6322206338        4.1860962066 m 1 1 1
        8.9138941089        2.0386360076        6.3354739222 m 1 1 1
        1.2608375000        2.1838347500        0.0000000000 m 0 0 0
       -1.2608879335        3.6397537011        2.0589934320 m 0 0 0
        3.7884517313        0.7942873127        4.1926531614 m 1 1 1
        1.3064978075        2.0946144580        6.3249929943 m 1 1 1
        2.5216750000        0.0000000000        0.0000000000 m 0 0 0
       -0.0000504335        1.4559189511        2.0589934320 m 0 0 0
        2.5127639171        2.9195681891        4.1331184783 m 1 1 1
       -2.5036586159        8.5927340343        6.3368152185 m 1 1 1
        5.0433500000        0.0000000000        0.0000000000 m 0 0 0
        7.5649745665        1.4559189511        2.0589934320 m 0 0 0
        5.1132864861        2.8944438561        4.1128273169 m 1 1 1
        0.0509270204        8.7121910232        6.3359127760 m 1 1 1
        3.7825125000        2.1838347500        0.0000000000 m 0 0 0
        6.3041370665        3.6397537011        2.0589934320 m 0 0 0
        6.2582059993        0.7444489223        4.1163901974 m 1 1 1
        3.7576161488        2.0704250322        6.2203753292 m 1 1 1
        6.3041875000        2.1838347500        0.0000000000 m 0 0 0
        3.7824620665        3.6397537011        2.0589934320 m 0 0 0
        8.8130034800        0.6250259548        4.0408455594 m 1 1 1
        6.3683580688        2.1634864980        6.1988001954 m 1 1 1
        7.5650250000        0.0000000000        0.0000000000 m 0 0 0
        5.0432995665        1.4559189511        2.0589934320 m 0 0 0
        7.7015981789        2.8994367539        4.2411872159 m 1 1 1
        2.5517146668        8.6035190338        6.0966021011 m 1 1 1
        7.5650250000        4.3676695000        0.0000000000 m 0 0 0
       -0.0000504335        5.8235884511        2.0589934320 m 0 0 0
       -2.5440610528        7.2418622050        4.1952108197 m 1 1 1
        7.5541439165        4.2288218478        6.1621048421 m 1 1 1
        6.3041875000        6.5515042500        0.0000000000 m 0 0 0
       -1.2608879335        8.0074232011        2.0589934320 m 0 0 0
       -1.2323536414        5.0828722930        4.2035928367 m 1 1 1
        6.2505490025        6.4859153243        6.2973439627 m 1 1 1
       -1.2608375000        6.5515042500        0.0000000000 m 0 0 0
       -3.7825629335        8.0074232011        2.0589934320 m 0 0 0
        1.2545920786        5.1850394314        4.2456036439 m 1 1 1
       -1.2013289652        6.4370555162        6.2836239577 m 1 1 1
        0.0000000000        4.3676695000        0.0000000000 m 0 0 0
       -2.5217254335        5.8235884511        2.0589934320 m 0 0 0
       -0.0325529142        7.3106768407        4.1071538214 m 1 1 1
        0.0387586390        4.1877254203        6.4151497716 m 1 1 1
        2.5216750000        4.3676695000        0.0000000000 m 0 0 0
        5.0432995665        5.8235884511        2.0589934320 m 0 0 0
        2.4915558090        7.0852760219        4.1026811211 m 1 1 1
        2.5358253031        4.2070723791        6.2323014067 m 1 1 1
        1.2608375000        6.5515042500        0.0000000000 m 0 0 0
        3.7824620665        8.0074232011        2.0589934320 m 0 0 0
        3.7439482180        5.0502447738        4.0965850290 m 1 1 1
        1.2356356586        6.4485311876        6.3672917808 m 1 1 1
        3.7825125000        6.5515042500        0.0000000000 m 0 0 0
        1.2607870665        8.0074232011        2.0589934320 m 0 0 0
        6.2534478783        4.9958153869        4.0996240360 m 1 1 1
        3.7644925577        6.4989025466        6.2168879017 m 1 1 1
        5.0433500000        4.3676695000        0.0000000000 m 0 0 0
        2.5216245665        5.8235884511        2.0589934320 m 0 0 0
        5.0112171505        7.2401700678        4.1372121403 m 1 1 1
        5.0605521274        4.2911810014        6.6422696539 m 1 1 1

C #label
0.0000   #magnetism
1 #number of atoms
        5.4018290772        4.2254034270        8.5520655628 m 1 1 1

O #label
0.0000   #magnetism
28 #number of atoms
        5.9934369729        3.4165788350        9.2263538998 m 1 1 1
        4.4433200861        5.7807535671       12.8041464255 m 1 1 1
        2.2553013223        7.5208355037       16.3478419733 m 1 1 1
        4.8275949861       -0.2663536268       15.5407016624 m 1 1 1
        5.1214041534        4.6526435251       16.5947404039 m 1 1 1
        1.2806627303        2.4627740904       16.9780600034 m 1 1 1
        1.5738164557        6.5385606154        9.5816090677 m 1 1 1
        8.5762456129        1.1185747984       16.0943893046 m 1 1 1
        2.5898053418        3.1197377576        9.7518280610 m 1 1 1
        4.2127422985        1.4842668138       10.9927529529 m 1 1 1
        6.2194865325        2.2636697376       15.4203360421 m 1 1 1
        7.9344794293       -0.0915822266       12.4017190810 m 1 1 1
       -0.0864179102        0.6831582900       14.0697827298 m 1 1 1
        0.6117059160        7.3012104392       13.2302467326 m 1 1 1
        3.4854690182       -0.7355258619       12.1550705942 m 1 1 1
       -0.7905146546        5.1186466223        9.4199607078 m 1 1 1
        9.1843226526       -0.1088279623        9.7059805884 m 1 1 1
        2.3094593351       -0.3911938717       14.5107943476 m 1 1 1
        6.6152724186        5.7426789803       14.3618486586 m 1 1 1
        1.9718933141        4.9382455329       13.6363154693 m 1 1 1
       -2.2102626282        4.0999575445       12.6367500523 m 1 1 1
        0.1766182684        2.3813495110       10.0235573065 m 1 1 1
        0.2601780777        2.9950531419       12.6588187793 m 1 1 1
        6.0802103314        2.1500380159       12.8575224933 m 1 1 1
       -2.7368351551        5.9185547347       10.9030387666 m 1 1 1
        6.2207738703        0.5855883144        9.4396714237 m 1 1 1
        5.0583422095        6.3031969371       10.0769423694 m 1 1 1
        2.5028150443        4.8818509965       16.2216024053 m 1 1 1

H #label
0.0000   #magnetism
55 #number of atoms
        3.5494427705        5.4960246409       12.9835855815 m 1 1 1
        4.5918343116        5.8070639060       11.8165952743 m 1 1 1
        1.3187983776        7.5932703526       16.1080333930 m 1 1 1
        7.6627795789       -0.3087464601       16.5667317546 m 1 1 1
        3.8422647647       -0.3202886096       15.4941570076 m 1 1 1
        5.0590765579        0.6736494665       15.6418635722 m 1 1 1
        5.2091242066        5.1842501066       17.4024985783 m 1 1 1
        1.5620734678        3.3945640395       16.9060835844 m 1 1 1
        1.9151636057        1.9470862838       17.5297468140 m 1 1 1
        2.1753853170        5.8701526668        9.9099407637 m 1 1 1
        0.6568600525        6.0641949658        9.7247982650 m 1 1 1
        2.4596312015        5.9090337259       16.2786821659 m 1 1 1
        9.0860819111        0.8143946012       15.2442098810 m 1 1 1
       -0.7589476569        1.6276530438       16.5834059483 m 1 1 1
        2.7524849889        3.0250633191        8.7878723122 m 1 1 1
        3.2426517103        2.3736212561       10.2103858576 m 1 1 1
        4.9383156119        1.1818487286       10.3323059809 m 1 1 1
        3.8590472988        0.6506749452       11.4420682899 m 1 1 1
        7.0598511366        1.8764296920       15.6059943994 m 1 1 1
        5.8057888137        3.0077307782       15.9135368970 m 1 1 1
        8.1172616334       -0.3416485914       11.4394872815 m 1 1 1
        9.5123636622       -0.0170539052       13.5497689592 m 1 1 1
       -0.0790120320        1.5307769796       13.5511626021 m 1 1 1
        0.2685366340        7.7178752181       14.0552975007 m 1 1 1
        1.5346658717        7.8527359339       12.9857629488 m 1 1 1
       -0.6582060745        7.7425177002       12.5494240189 m 1 1 1
        2.9657823144       -0.5367800381       13.0313674056 m 1 1 1
       -1.0209369861        5.1512653615        8.4928499070 m 1 1 1
       -1.5869055636        5.4775849771        9.9066546974 m 1 1 1
        8.2711824862       -0.0128833671        9.3887076797 m 1 1 1
       -2.9658018360        7.4214513251       14.6371571698 m 1 1 1
        1.4614321323        0.0855958430       14.3206083254 m 1 1 1
        5.7741248486        5.6646124554       13.7987328566 m 1 1 1
        6.3247538489        5.4498093965       15.2930284047 m 1 1 1
        1.4896028183        4.1951884483       13.1853316273 m 1 1 1
        7.6453632505        4.7377921895       13.3666637097 m 1 1 1
        7.1151598139        3.4359352071       12.6943702049 m 1 1 1
        1.2008490112        2.5158747321        9.9756122188 m 1 1 1
       -0.1858322621        3.2185946787        9.6620677815 m 1 1 1
       -0.5523679918        3.5830478700       12.7073951980 m 1 1 1
        0.2340798169        2.8131174580       11.6677480524 m 1 1 1
        5.8299355027        2.3652223969       13.7936218555 m 1 1 1
        5.3477318338        2.0871976958       12.1812144904 m 1 1 1
       -2.5449145621        5.1596349357       11.5593324408 m 1 1 1
       -2.3878253972        6.7324457877       11.3632561841 m 1 1 1
        6.0794580781        0.9438089498        8.5305938186 m 1 1 1
        1.1125987062        8.3838217714        9.2502477839 m 1 1 1
        4.8786088387        7.2088616631        9.7677654306 m 1 1 1
        5.0557041204        5.4185409197        9.0650555090 m 1 1 1
        7.4722734623        0.7914415692       12.4067582099 m 1 1 1
        9.5870372471        0.7943506419        9.6829582129 m 1 1 1
        2.3242244040        4.8508492330       15.2081528728 m 1 1 1
        4.1285677615        4.7978607777       16.4378864120 m 1 1 1
        1.4237885513        5.7053773724       13.3947094827 m 1 1 1
        6.0407715585        6.1572796193       10.2744582872 m 1 1 1
