ATOMIC_SPECIES
Cu  63.5460 ../pporb/Cu_ONCV_PBE-1.0.upf auto
C  12.0110 ../pporb/C_ONCV_PBE-1.0.upf auto
O  15.9990 ../pporb/O_ONCV_PBE-1.0.upf auto
H   1.0080 ../pporb/H_ONCV_PBE-1.0.upf auto

NUMERICAL_ORBITAL
../pporb/Cu_gga_8au_100Ry_4s2p2d1f.orb
../pporb/C_gga_7au_100Ry_2s2p1d.orb
../pporb/O_gga_7au_100Ry_2s2p1d.orb
../pporb/H_gga_6au_100Ry_2s1p.orb

LATTICE_CONSTANT
1.8897261258

LATTICE_VECTORS
       10.0867000000        0.0000000000        0.0000000000
       -5.0433500000        8.7353390000        0.0000000000
        0.0000000000        0.0000000000       32.1768000000

ATOMIC_POSITIONS
Cartesian

Cu #label
0.0000   #magnetism
64 #number of atoms
        0.0000000000        0.0000000000        0.0000000000 m 0 0 0
        2.5216245665        1.4559189511        2.0589934320 m 0 0 0
       -0.0113400376        2.7955789575        4.1419257818 m 1 1 1
        0.0436172845        0.0331270409        6.2281571423 m 1 1 1
       -1.2608375000        2.1838347500        0.0000000000 m 0 0 0
        1.2607870665        3.6397537011        2.0589934320 m 0 0 0
        1.3285746052        0.6333870862        4.1908878369 m 1 1 1
       -1.2123730014        2.2398430103        6.3252492427 m 1 1 1
        1.2608375000        2.1838347500        0.0000000000 m 0 0 0
       -1.2608879335        3.6397537011        2.0589934320 m 0 0 0
        3.7881203848        0.7489808616        4.0401064322 m 1 1 1
        1.2393525627        2.2882548423        6.2096289264 m 1 1 1
        2.5216750000        0.0000000000        0.0000000000 m 0 0 0
       -0.0000504335        1.4559189511        2.0589934320 m 0 0 0
        2.6058560483        2.8988160624        4.2216777177 m 1 1 1
        2.5533331544       -0.1160261488        6.0948797192 m 1 1 1
        5.0433500000        0.0000000000        0.0000000000 m 0 0 0
        7.5649745665        1.4559189511        2.0589934320 m 0 0 0
        5.0592554532        2.8849284689        4.0843258917 m 1 1 1
       -0.0545968636        8.7590549180        6.1980723939 m 1 1 1
        3.7825125000        2.1838347500        0.0000000000 m 0 0 0
        6.3041370665        3.6397537011        2.0589934320 m 0 0 0
        6.3432169742        0.6527989120        4.0729338506 m 1 1 1
        3.7112150528        2.2205471789        6.3298123613 m 1 1 1
        6.3041875000        2.1838347500        0.0000000000 m 0 0 0
        3.7824620665        3.6397537011        2.0589934320 m 0 0 0
        8.7782463752        0.6909282978        4.0969756805 m 1 1 1
        6.0872466237        2.2702041580        6.3024205320 m 1 1 1
        7.5650250000        0.0000000000        0.0000000000 m 0 0 0
        5.0432995665        1.4559189511        2.0589934320 m 0 0 0
        7.4989037651        2.8472281590        4.2057358531 m 1 1 1
        2.6577643558        8.8803973671        6.2250750002 m 1 1 1
        7.5650250000        4.3676695000        0.0000000000 m 0 0 0
       -0.0000504335        5.8235884511        2.0589934320 m 0 0 0
       -2.4450441919        7.1376707944        4.1562323702 m 1 1 1
       -2.5417769704        4.4815609054        6.3574967763 m 1 1 1
        6.3041875000        6.5515042500        0.0000000000 m 0 0 0
       -1.2608879335        8.0074232011        2.0589934320 m 0 0 0
       -1.3291234992        4.9392452419        4.1312509032 m 1 1 1
       -3.8371180238        6.5461528343        6.1788630633 m 1 1 1
       -1.2608375000        6.5515042500        0.0000000000 m 0 0 0
       -3.7825629335        8.0074232011        2.0589934320 m 0 0 0
        1.2443126618        4.9940073964        4.2503971060 m 1 1 1
       -1.1237203060        6.4980861462        6.1334064413 m 1 1 1
        0.0000000000        4.3676695000        0.0000000000 m 0 0 0
       -2.5217254335        5.8235884511        2.0589934320 m 0 0 0
        0.0747332771        7.1014592699        4.1610371726 m 1 1 1
       -0.0904969785        4.2844319335        6.2394915866 m 1 1 1
        2.5216750000        4.3676695000        0.0000000000 m 0 0 0
        5.0432995665        5.8235884511        2.0589934320 m 0 0 0
        2.5064848590        7.2066612823        4.1019704629 m 1 1 1
        2.4827594129        4.4081524914        6.4063658315 m 1 1 1
        1.2608375000        6.5515042500        0.0000000000 m 0 0 0
        3.7824620665        8.0074232011        2.0589934320 m 0 0 0
        3.7244496354        5.0828623156        4.1752233340 m 1 1 1
        1.2663108389        6.5462140942        6.3024264423 m 1 1 1
        3.7825125000        6.5515042500        0.0000000000 m 0 0 0
        1.2607870665        8.0074232011        2.0589934320 m 0 0 0
        6.2361315914        5.0020533619        4.1290889292 m 1 1 1
        3.8176859923        6.6624302183        6.3615273255 m 1 1 1
        5.0433500000        4.3676695000        0.0000000000 m 0 0 0
        2.5216245665        5.8235884511        2.0589934320 m 0 0 0
        5.0444425406        7.2562753286        4.1215559078 m 1 1 1
        5.0520842903        4.5091039953        6.2256781767 m 1 1 1

C #label
0.0000   #magnetism
1 #number of atoms
        2.3578873138        3.0281374502        7.9037577867 m 1 1 1

O #label
0.0000   #magnetism
28 #number of atoms
        1.9093645001        2.8562756541        8.9651724395 m 1 1 1
        1.4497523954        3.0724945684       14.5036572137 m 1 1 1
        4.6642926087        5.7548906486       17.3791818906 m 1 1 1
        5.0586350369        1.1658776145       13.5223931966 m 1 1 1
        0.1039893818        5.0576378873       15.7640867412 m 1 1 1
        2.1619732818        7.0606873773       15.8515230669 m 1 1 1
        0.6020060719        5.5940952894       11.6862696892 m 1 1 1
        5.3643421696        3.5036395019       16.1244357483 m 1 1 1
        2.1903713024        3.6437606947       12.0850360716 m 1 1 1
        1.0327936807        1.4400682750       11.6405152469 m 1 1 1
        0.9538692174       -0.9968122019       16.0443358954 m 1 1 1
        2.1215471093        7.8047348983       13.1958326685 m 1 1 1
        7.1667582156        1.3304786779       15.2172413848 m 1 1 1
       -1.1855758836        7.1862815865       12.6314439290 m 1 1 1
       -3.2632225260        7.7899749811       11.1536283844 m 1 1 1
       -0.9346458439        4.6625300374        9.5090134577 m 1 1 1
        2.3071012296        6.5550984843        9.5583756128 m 1 1 1
        4.8662933596        7.0389814516       12.7558288596 m 1 1 1
        3.3611577204        1.7775822130       15.6538759764 m 1 1 1
       -2.1026313643        6.2006967302       14.9173504467 m 1 1 1
        4.8293629132        2.9832099080       11.6303063914 m 1 1 1
       -0.8818218162        2.1052802753        9.4330742896 m 1 1 1
       -0.2223187948        1.3002594643       14.4019025646 m 1 1 1
        5.4736430464        1.7504069837        9.2925316737 m 1 1 1
        6.5515163406        5.6393027793        9.5392456984 m 1 1 1
        7.3411040557        0.5435647545       10.5354202969 m 1 1 1
        4.1503042283        4.8187490990        9.3086419696 m 1 1 1
        5.7113995423        4.8441385269       13.7848981054 m 1 1 1

H #label
0.0000   #magnetism
55 #number of atoms
        0.7105855497        2.3053938112       14.3522945605 m 1 1 1
        1.8243022620        3.2167317110       13.5623726611 m 1 1 1
       -5.0616312415        6.4777330183       16.7880242403 m 1 1 1
        4.2869734327        6.1613434888       18.1805102677 m 1 1 1
        4.3622126212        1.2561459102       14.2709912838 m 1 1 1
        5.9652920042        1.0980213384       13.9592419512 m 1 1 1
       -0.0250822099        4.8324731767       16.6876098205 m 1 1 1
        2.9249759198        6.4908184860       16.0409481888 m 1 1 1
        1.4904589450        6.3812667323       15.7022185608 m 1 1 1
        1.2987680717        4.9120019052       11.8793411982 m 1 1 1
        0.0348147279        5.2109532341       10.9389848079 m 1 1 1
        5.3749919060        4.3672549253       14.6078909291 m 1 1 1
        5.0937836519        4.2277389599       16.7229752919 m 1 1 1
        4.5496823001        2.9211314523       16.1823523574 m 1 1 1
        1.7994512452        2.8294420069       11.6629269684 m 1 1 1
        3.1454542925        3.5071416553       11.8494421450 m 1 1 1
        1.4491191784        0.5501157181       11.4001056167 m 1 1 1
        0.3793009469        1.6121820748       10.9201596478 m 1 1 1
        0.6558819170       -0.4131115235       15.3228157828 m 1 1 1
       -3.3332683862        7.2016833343       15.7108470673 m 1 1 1
        2.0117680139        7.5574725992       14.1776937698 m 1 1 1
        6.6841196922        2.1808196344       15.4872497537 m 1 1 1
        2.1483469077        9.4437753857       15.9626057407 m 1 1 1
       -0.5998819297        7.9770517740       12.8052197963 m 1 1 1
       -0.5576557702        6.5649766764       12.2012065551 m 1 1 1
       -2.4003128428        7.5877924542       11.6034620296 m 1 1 1
       -4.0277327400        7.4960405505       11.6666506464 m 1 1 1
       -0.8539304867        5.0819513570        8.6002899803 m 1 1 1
       -0.8881836210        3.6860299403        9.3222266126 m 1 1 1
        1.6030400171        6.3513033703       10.1880185602 m 1 1 1
        5.0134289388        6.1370527415       13.2121533409 m 1 1 1
        3.8687028030        7.2899093376       12.8377274352 m 1 1 1
        2.5725312760        2.2615621025       15.1642710431 m 1 1 1
        2.8483945801        1.1018025773       16.0865355711 m 1 1 1
       -1.6269458274        6.6758906593       14.1227650306 m 1 1 1
        5.3045309503        3.6166878395       12.2448850469 m 1 1 1
        4.7611681802        2.1578358268       12.3221690584 m 1 1 1
       -0.7942856911        1.6989674933        8.5151847751 m 1 1 1
        8.3563631615        1.6556837627        9.7935191851 m 1 1 1
        9.0080179514        1.4758655730       14.8445045047 m 1 1 1
       -0.4463183892        1.1496713964       13.4326213861 m 1 1 1
        4.9373665046        2.0950292512       10.0702636721 m 1 1 1
        4.8911685141        1.3488606345        8.6125099493 m 1 1 1
       -2.6252760114        5.1912368556        9.6005302489 m 1 1 1
       -3.5601852644        6.4306262086       10.2040492387 m 1 1 1
        6.4943718399        0.8635519132       10.0958187425 m 1 1 1
        2.1773492223        9.0400941260       11.4328735125 m 1 1 1
        3.5436413120        5.5316678242        9.5525435111 m 1 1 1
        3.8683188483        4.5912770313        8.3235184722 m 1 1 1
        1.5901907026        7.0564328774       12.7809372054 m 1 1 1
        2.5068951899        7.4726725532        9.7863571835 m 1 1 1
        6.6194034883        5.1772628029       14.0782582295 m 1 1 1
        0.5196714648        4.2758817839       15.2392683600 m 1 1 1
       -1.4343531937        5.6290394199       15.3256454497 m 1 1 1
        5.1769495395        5.0879742644        9.3143381675 m 1 1 1
