ATOMIC_SPECIES
Cu  63.5460 ../pporb/Cu_ONCV_PBE-1.0.upf auto
C  12.0110 ../pporb/C_ONCV_PBE-1.0.upf auto
O  15.9990 ../pporb/O_ONCV_PBE-1.0.upf auto
H   1.0080 ../pporb/H_ONCV_PBE-1.0.upf auto

NUMERICAL_ORBITAL
../pporb/Cu_gga_8au_100Ry_4s2p2d1f.orb
../pporb/C_gga_7au_100Ry_2s2p1d.orb
../pporb/O_gga_7au_100Ry_2s2p1d.orb
../pporb/H_gga_6au_100Ry_2s1p.orb

LATTICE_CONSTANT
1.8897261258

LATTICE_VECTORS
       10.0867000000        0.0000000000        0.0000000000
       -5.0433500000        8.7353390000        0.0000000000
        0.0000000000        0.0000000000       32.1768000000

ATOMIC_POSITIONS
Cartesian

Cu #label
0.0000   #magnetism
64 #number of atoms
        0.0000000000        0.0000000000        0.0000000000 m 0 0 0
        2.5216245665        1.4559189511        2.0589934320 m 0 0 0
       -0.0213494136        2.9032945706        4.0615126681 m 1 1 1
       -0.0060278805       -0.0666191064        6.1223293343 m 1 1 1
       -1.2608375000        2.1838347500        0.0000000000 m 0 0 0
        1.2607870665        3.6397537011        2.0589934320 m 0 0 0
        1.1448016792        0.6744162227        3.9946209829 m 1 1 1
       -1.2735835178        2.1161928363        6.1326676573 m 1 1 1
        1.2608375000        2.1838347500        0.0000000000 m 0 0 0
       -1.2608879335        3.6397537011        2.0589934320 m 0 0 0
        3.8011433324        0.8831158613        4.2126403071 m 1 1 1
        1.1847507650        2.1602796533        6.2924815870 m 1 1 1
        2.5216750000        0.0000000000        0.0000000000 m 0 0 0
       -0.0000504335        1.4559189511        2.0589934320 m 0 0 0
        2.5491900197        3.0052471908        4.1401200304 m 1 1 1
       -2.5280365067        8.7357252623        6.2488957027 m 1 1 1
        5.0433500000        0.0000000000        0.0000000000 m 0 0 0
        7.5649745665        1.4559189511        2.0589934320 m 0 0 0
        5.0737096960        2.9747346109        4.1741585691 m 1 1 1
       -0.0551508644        8.5974205975        6.0567778270 m 1 1 1
        3.7825125000        2.1838347500        0.0000000000 m 0 0 0
        6.3041370665        3.6397537011        2.0589934320 m 0 0 0
        6.3334576267        0.6739236280        4.1618087212 m 1 1 1
        3.7966257651        2.1029371493        6.3039101536 m 1 1 1
        6.3041875000        2.1838347500        0.0000000000 m 0 0 0
        3.7824620665        3.6397537011        2.0589934320 m 0 0 0
        8.8184237522        0.7598802796        4.1292533645 m 1 1 1
        6.3859375002        2.2400169102        6.2941015784 m 1 1 1
        7.5650250000        0.0000000000        0.0000000000 m 0 0 0
        5.0432995665        1.4559189511        2.0589934320 m 0 0 0
        7.5098446774        2.9249234287        4.2214057660 m 1 1 1
        7.5749213874        0.0728213709        6.2782877043 m 1 1 1
        7.5650250000        4.3676695000        0.0000000000 m 0 0 0
       -0.0000504335        5.8235884511        2.0589934320 m 0 0 0
       -2.5181555036        7.3178620158        4.2524128616 m 1 1 1
        7.6150028493        4.3893553490        6.4015369758 m 1 1 1
        6.3041875000        6.5515042500        0.0000000000 m 0 0 0
       -1.2608879335        8.0074232011        2.0589934320 m 0 0 0
       -1.3249330081        5.1314638698        4.0553282344 m 1 1 1
       -3.9080765455        6.4812401670        6.2631493557 m 1 1 1
       -1.2608375000        6.5515042500        0.0000000000 m 0 0 0
       -3.7825629335        8.0074232011        2.0589934320 m 0 0 0
        1.2229107563        5.1223180817        4.0575348250 m 1 1 1
       -1.2268311873        6.4448042925        6.2796629482 m 1 1 1
        0.0000000000        4.3676695000        0.0000000000 m 0 0 0
       -2.5217254335        5.8235884511        2.0589934320 m 0 0 0
       -0.0874465710        7.3574110557        4.0625081843 m 1 1 1
       -0.0242212698        4.2719531249        6.0023652320 m 1 1 1
        2.5216750000        4.3676695000        0.0000000000 m 0 0 0
        5.0432995665        5.8235884511        2.0589934320 m 0 0 0
        2.5349431357        7.2594398111        4.2233125663 m 1 1 1
        2.3609432807        4.4563741830        6.2305763900 m 1 1 1
        1.2608375000        6.5515042500        0.0000000000 m 0 0 0
        3.7824620665        8.0074232011        2.0589934320 m 0 0 0
        3.7877175341        5.0784482916        4.1716278130 m 1 1 1
        1.2225300594        6.5606624412        6.2052827089 m 1 1 1
        3.7825125000        6.5515042500        0.0000000000 m 0 0 0
        1.2607870665        8.0074232011        2.0589934320 m 0 0 0
        6.3670058589        5.1183420510        4.1503337038 m 1 1 1
        3.8165748193        6.5881207903        6.4284576015 m 1 1 1
        5.0433500000        4.3676695000        0.0000000000 m 0 0 0
        2.5216245665        5.8235884511        2.0589934320 m 0 0 0
        4.9702860505        7.3053041888        4.1266246576 m 1 1 1
        5.1258288058        4.3749949355        6.5237700549 m 1 1 1

C #label
0.0000   #magnetism
1 #number of atoms
        4.6287173416        3.0558340125        7.8807766261 m 1 1 1

O #label
0.0000   #magnetism
28 #number of atoms
        4.7117444264        2.5553378083        8.9459675074 m 1 1 1
        2.2876237576        3.7986224995       13.2487116879 m 1 1 1
        2.3177503973        6.3440313283       17.0059278454 m 1 1 1
       -0.3569507625        7.7229724561       12.9257780057 m 1 1 1
       -0.2751488937        5.6966789582       17.3862208583 m 1 1 1
       -1.5463645536        7.3184814434       15.3664745787 m 1 1 1
        0.3417645431        5.7320653572        9.5083948856 m 1 1 1
        7.1580768380        0.4342531314       16.5842254095 m 1 1 1
        2.0428077549        3.7996450858       10.1691675394 m 1 1 1
        2.1125957892        1.1208982259        9.5804111950 m 1 1 1
        4.5639468717        1.0303810124       15.9957099325 m 1 1 1
        3.1781467091        6.0552858780       14.5837176524 m 1 1 1
        1.9555734121        8.3173767629       14.0039656582 m 1 1 1
       -1.4208677189        5.2995071693       12.1202414067 m 1 1 1
        5.9770845034        6.3551643626       14.5129646682 m 1 1 1
       -1.5944203827        3.2231318553        9.1076420973 m 1 1 1
        3.5750731163        7.6708155526        9.2546059804 m 1 1 1
        5.1131907868        4.9675840641       16.6052382973 m 1 1 1
        4.7233218716        3.1199033788       14.3432058154 m 1 1 1
       -0.4746276530        3.6755388974       14.1111877732 m 1 1 1
        5.9739231591        2.5111841273       12.1061285658 m 1 1 1
        9.6031075156        1.1134836224       10.3332026187 m 1 1 1
        8.4397500699        1.5307576037       12.7612957862 m 1 1 1
        4.4206658761        0.7881804114       10.9554154601 m 1 1 1
        6.4071845356        4.4589958542       10.4760948601 m 1 1 1
        1.0279916441        8.2235941955        9.1630048736 m 1 1 1
        4.2298996145        5.1551895581        9.4104447207 m 1 1 1
       -2.2672272121        3.0359823509       16.5165753017 m 1 1 1

H #label
0.0000   #magnetism
55 #number of atoms
        1.3407699895        3.5788049390       13.5371608000 m 1 1 1
        2.3171756359        3.6686776686       12.2443186180 m 1 1 1
        2.9627644884        5.9232309814       17.5683978097 m 1 1 1
        2.7819686304        6.3005588053       16.1047531723 m 1 1 1
       -0.8169978341        7.5492596507       13.8377451837 m 1 1 1
        0.4734442147        8.1491189482       13.2433229183 m 1 1 1
        0.6811161196        5.8167527938       17.3451194174 m 1 1 1
       -2.4610570271        7.0640658365       15.2216194756 m 1 1 1
       -1.0274590055        6.6380417814       15.8972999475 m 1 1 1
        0.9464972906        4.9513958356        9.7792041538 m 1 1 1
       -0.2829290713        5.3952374249        8.8062725687 m 1 1 1
        7.5938838278        2.0537715429       16.5873433072 m 1 1 1
        7.4649055969       -0.3368255480       17.1989110766 m 1 1 1
        7.1650188147        0.0062920453       15.6663766555 m 1 1 1
        1.8888337206        2.9820421807        9.6713746545 m 1 1 1
        2.8590075843        4.2343522954        9.7435478764 m 1 1 1
        2.9567676349        0.8320739777       10.0455435501 m 1 1 1
        2.0789824904        0.8356833455        8.6332266116 m 1 1 1
       -1.0509247223        9.0345905385       16.0092493302 m 1 1 1
        5.4997434297        0.8371851990       16.4607377654 m 1 1 1
        4.1239329580        6.1322755361       14.3665248291 m 1 1 1
        2.4564632652        7.4442749775       14.0079435824 m 1 1 1
        7.5764233913        0.2890450065       13.5811171102 m 1 1 1
       -1.2189193040        6.2660888651       12.2716818695 m 1 1 1
       -0.8340900403        5.1729952312       11.3379234328 m 1 1 1
        5.7929934528        5.8633630499       15.4010395642 m 1 1 1
       -3.6147306454        5.7020061900       13.9595208509 m 1 1 1
       -1.8373317050        2.7305557576        8.2837278942 m 1 1 1
        7.6780212692        3.5741107994        9.5421681640 m 1 1 1
        2.6153253984        7.8475642010        9.3898628744 m 1 1 1
        5.0056497588        4.2050326669       16.0258388919 m 1 1 1
        5.6560974574        4.6866170212       17.3420985557 m 1 1 1
        3.8208452465        3.2191979936       13.9685879741 m 1 1 1
        4.6119703844        2.2836639416       14.9524658307 m 1 1 1
       -0.7317515605        2.8018908900       13.6601942869 m 1 1 1
        5.6478310422        2.6627139549       13.0462287812 m 1 1 1
        5.3365448193        1.8128744047       11.7446916311 m 1 1 1
        0.5047752866        1.0052493498       10.1897514183 m 1 1 1
       -0.7736568838        1.9653903209        9.8545933420 m 1 1 1
        7.5839946578        1.9254994461       12.4335076293 m 1 1 1
        8.9377180247        1.2448804071       11.9916804213 m 1 1 1
        4.3748132699        0.0995241279       11.6476273202 m 1 1 1
        4.9396084127        0.3877435269       10.2744205531 m 1 1 1
        6.1260996613        3.7370703289       11.1058631611 m 1 1 1
        7.0012865865        4.8902092669       11.1348175695 m 1 1 1
        1.0043434899        8.4230598331        8.1992163941 m 1 1 1
        0.6728437013        7.2098181720        9.2552801996 m 1 1 1
        3.9790029979        6.0717639503        9.1957073400 m 1 1 1
        4.6259589192        4.7499260648        8.5079763202 m 1 1 1
        2.8146813801        5.2535475208       14.0727825695 m 1 1 1
        4.0217343072        8.4273515491        9.6505605772 m 1 1 1
       -1.6933120524        3.1361928808       15.7448441155 m 1 1 1
       -0.4318701020        4.6732857575       17.2235747787 m 1 1 1
       -0.9268547018        4.3555884740       13.5820895179 m 1 1 1
        5.0146866915        4.9600938558       10.0939418466 m 1 1 1
