ATOMIC_SPECIES
Cu  63.5460 ../pporb/Cu_ONCV_PBE-1.0.upf auto
C  12.0110 ../pporb/C_ONCV_PBE-1.0.upf auto
O  15.9990 ../pporb/O_ONCV_PBE-1.0.upf auto
H   1.0080 ../pporb/H_ONCV_PBE-1.0.upf auto

NUMERICAL_ORBITAL
../pporb/Cu_gga_8au_100Ry_4s2p2d1f.orb
../pporb/C_gga_7au_100Ry_2s2p1d.orb
../pporb/O_gga_7au_100Ry_2s2p1d.orb
../pporb/H_gga_6au_100Ry_2s1p.orb

LATTICE_CONSTANT
1.8897261258

LATTICE_VECTORS
       10.0867000000        0.0000000000        0.0000000000
       -5.0433500000        8.7353390000        0.0000000000
        0.0000000000        0.0000000000       32.1768000000

ATOMIC_POSITIONS
Cartesian

Cu #label
0.0000   #magnetism
64 #number of atoms
        0.0000000000        0.0000000000        0.0000000000 m 0 0 0
        2.5216245665        1.4559189511        2.0589934320 m 0 0 0
       -0.0307865476        2.9317595018        4.2117817849 m 1 1 1
       10.1322059618        0.0432493842        6.2338182337 m 1 1 1
       -1.2608375000        2.1838347500        0.0000000000 m 0 0 0
        1.2607870665        3.6397537011        2.0589934320 m 0 0 0
        1.3144204185        0.6122953116        4.0667873233 m 1 1 1
       -1.3639903581        2.2089509810        6.3005152010 m 1 1 1
        1.2608375000        2.1838347500        0.0000000000 m 0 0 0
       -1.2608879335        3.6397537011        2.0589934320 m 0 0 0
        3.8656762438        0.6919917371        4.1913124528 m 1 1 1
        1.1890977805        2.1774276332        6.0778489064 m 1 1 1
        2.5216750000        0.0000000000        0.0000000000 m 0 0 0
       -0.0000504335        1.4559189511        2.0589934320 m 0 0 0
        2.4252269389        2.7896553013        4.2654587415 m 1 1 1
       -2.4703270632        8.7036725087        6.0321401059 m 1 1 1
        5.0433500000        0.0000000000        0.0000000000 m 0 0 0
        7.5649745665        1.4559189511        2.0589934320 m 0 0 0
        4.9821928652        2.8766073054        4.1383148094 m 1 1 1
        0.0314999780        8.7694769342        6.1237995345 m 1 1 1
        3.7825125000        2.1838347500        0.0000000000 m 0 0 0
        6.3041370665        3.6397537011        2.0589934320 m 0 0 0
        6.3081810520        0.7943686779        4.0104459471 m 1 1 1
        3.7495735194        2.0880391105        6.4606128865 m 1 1 1
        6.3041875000        2.1838347500        0.0000000000 m 0 0 0
        3.7824620665        3.6397537011        2.0589934320 m 0 0 0
        8.7993950712        0.7298543812        4.2257671464 m 1 1 1
        6.3192223236        2.1517179724        6.1263810249 m 1 1 1
        7.5650250000        0.0000000000        0.0000000000 m 0 0 0
        5.0432995665        1.4559189511        2.0589934320 m 0 0 0
        7.5481165735        2.8555530925        4.1610580175 m 1 1 1
        7.5982628923       -0.0180758550        6.1159285640 m 1 1 1
        7.5650250000        4.3676695000        0.0000000000 m 0 0 0
       -0.0000504335        5.8235884511        2.0589934320 m 0 0 0
       -2.4475525574        7.2401030568        4.0178913748 m 1 1 1
        7.6657530356        4.4632852016        6.4257321108 m 1 1 1
        6.3041875000        6.5515042500        0.0000000000 m 0 0 0
       -1.2608879335        8.0074232011        2.0589934320 m 0 0 0
       -1.2681701627        5.1639162566        4.1622485442 m 1 1 1
        6.2513248301        6.5292126337        6.1785885390 m 1 1 1
       -1.2608375000        6.5515042500        0.0000000000 m 0 0 0
       -3.7825629335        8.0074232011        2.0589934320 m 0 0 0
        1.2208976929        5.1900882254        4.2693589890 m 1 1 1
       -1.1764330818        6.5813178444        6.0796594426 m 1 1 1
        0.0000000000        4.3676695000        0.0000000000 m 0 0 0
       -2.5217254335        5.8235884511        2.0589934320 m 0 0 0
        0.0082457166        7.3345208607        4.0489714227 m 1 1 1
        0.1254329139        4.4380970596        6.3940456101 m 1 1 1
        2.5216750000        4.3676695000        0.0000000000 m 0 0 0
        5.0432995665        5.8235884511        2.0589934320 m 0 0 0
        2.5160342640        7.3482958633        4.1226886409 m 1 1 1
        2.5718290607        4.2343524487        6.3034486016 m 1 1 1
        1.2608375000        6.5515042500        0.0000000000 m 0 0 0
        3.7824620665        8.0074232011        2.0589934320 m 0 0 0
        3.6947780310        4.9736836009        4.1236055203 m 1 1 1
        1.2952839461        6.6175198410        6.2892862468 m 1 1 1
        3.7825125000        6.5515042500        0.0000000000 m 0 0 0
        1.2607870665        8.0074232011        2.0589934320 m 0 0 0
        6.3904141932        5.0757335075        4.0929922871 m 1 1 1
        3.8789557927        6.5115666384        6.0933462561 m 1 1 1
        5.0433500000        4.3676695000        0.0000000000 m 0 0 0
        2.5216245665        5.8235884511        2.0589934320 m 0 0 0
        5.0011865921        7.1165772698        4.1551908225 m 1 1 1
        5.1811969830        4.3560640445        6.0992988819 m 1 1 1

C #label
0.0000   #magnetism
1 #number of atoms
        2.9991892238        2.8000516548        8.0874021178 m 1 1 1

O #label
0.0000   #magnetism
28 #number of atoms
        2.2284215900        2.2717410837        8.8497462193 m 1 1 1
        1.5448347519        2.0840709543       11.8267385677 m 1 1 1
        0.5404406692        5.6635828162       15.9088131516 m 1 1 1
        3.7837731428       -0.5952695945       13.6482124659 m 1 1 1
       -3.6072027890        8.3918853649       14.8852037023 m 1 1 1
        2.1912920989        3.3901523324       15.1900082838 m 1 1 1
        0.3682114106        5.4322634162        9.4107946830 m 1 1 1
        5.9557549042       -0.2397569782       15.2144622701 m 1 1 1
       -0.1208705161        1.1287960661        9.8565662207 m 1 1 1
        1.7680875030       -1.4709117455        9.1747402981 m 1 1 1
        6.8631029902        2.5660631648       15.8252033049 m 1 1 1
        2.0228680609        4.9767223520       11.3798926473 m 1 1 1
        2.4190243002        7.1130135527       13.3828318674 m 1 1 1
       -1.4270857308        5.4107387121       13.7069279072 m 1 1 1
       -3.1856950472        6.3231774995       11.8404093044 m 1 1 1
       -1.4983316038        3.3890693932        9.1132169907 m 1 1 1
        3.9109148973        7.1662373940        9.0437185519 m 1 1 1
        5.0184449237        6.3263161933       13.8348737023 m 1 1 1
        4.7136549949        3.8543245910       14.4280067694 m 1 1 1
       -1.0197261491        2.3692247371       14.0558347764 m 1 1 1
        5.3477125873        2.4520984002       12.1339338239 m 1 1 1
        7.1202866438        0.3447138753        9.5410474149 m 1 1 1
        7.8008833363        0.8067609868       12.1780976937 m 1 1 1
        3.7832961203        0.6148917600       11.3476319678 m 1 1 1
        6.3322550513        4.1256704783       10.5002170042 m 1 1 1
        4.7353790005       -0.8464518981        9.1395979473 m 1 1 1
        4.0967411770        4.6166248853        9.5046006091 m 1 1 1
       -2.3193610769        5.1552711400       16.3488344165 m 1 1 1

H #label
0.0000   #magnetism
55 #number of atoms
        1.1505410924        1.9563752749       12.6902594232 m 1 1 1
        2.3545885730        1.5115357265       11.7098358563 m 1 1 1
       -0.2006077544        5.2273654226       16.2741592339 m 1 1 1
        0.2560833460        5.6262842917       14.9437992189 m 1 1 1
        2.8813407658       -0.4262650679       14.1624166462 m 1 1 1
        4.6017768670       -0.2281639666       14.1441634301 m 1 1 1
       -4.2437020482        7.8228518882       14.4311360801 m 1 1 1
        1.6104899147        4.1175661164       15.4504370218 m 1 1 1
        1.8942095519        2.6336420479       15.7289268505 m 1 1 1
        0.9071578173        5.1825223247       10.1474350082 m 1 1 1
       -0.2491256422        4.6507970259        9.2752539324 m 1 1 1
       -2.9980962632        4.4345721879       16.4585948633 m 1 1 1
        0.7046097995        7.7651549898       15.8309311134 m 1 1 1
        1.5761830714        8.0780795628       14.6600938392 m 1 1 1
        0.4030707410        1.2206407333        9.0398437957 m 1 1 1
        0.4906689613        1.4897604558       10.5663449610 m 1 1 1
       -3.5187070672        6.7852667026        9.9518660038 m 1 1 1
        2.7399404687       -1.5363376380        9.2496623809 m 1 1 1
        7.6721273829        2.3780551854       15.3223277785 m 1 1 1
        6.4579201847        1.6802637144       15.8862589092 m 1 1 1
        1.9756708383        3.9621243145       11.5519549915 m 1 1 1
        2.0732546859        6.4453652644       12.7029679114 m 1 1 1
        2.5577507937        8.0015918090       12.9029873779 m 1 1 1
       -1.9402196958        5.4142260567       14.5560981348 m 1 1 1
       -1.0629517998        6.3613665306       13.5919614426 m 1 1 1
       -2.4749353334        5.9282034571       12.4688551965 m 1 1 1
       -3.9910165306        6.3992797357       12.4286845343 m 1 1 1
       -1.0494546023        2.5686148904        9.4842498627 m 1 1 1
       -2.3155605998        3.5782668197        9.7126657016 m 1 1 1
        3.1915640681        7.7147444305        9.4201125717 m 1 1 1
        4.9903410313        5.3618909908       14.2372894631 m 1 1 1
        4.0961959929        6.7253446472       13.6788981437 m 1 1 1
        3.8597280124        3.7983247218       14.9152867409 m 1 1 1
        5.4140214247        3.3528508705       14.9119183729 m 1 1 1
        8.7706513576        1.8182897556       13.2699323784 m 1 1 1
        5.0106978665        2.9573964372       12.9096126084 m 1 1 1
        4.6699261899        1.7937400128       11.7610252459 m 1 1 1
        7.2519191856        0.9297677849        8.7548679562 m 1 1 1
        6.2355166709       -0.0851669602        9.3180135071 m 1 1 1
        7.0100302402        1.3634790047       12.0965776565 m 1 1 1
        7.9494364523        0.5195559284       11.2446459449 m 1 1 1
        3.7315057605       -0.0632360881       12.1400873346 m 1 1 1
        3.9934237823        0.1760876722       10.5034580094 m 1 1 1
        5.9076622145        3.4668354158       11.1502992918 m 1 1 1
        6.5217136541        4.9314254828       11.0585880036 m 1 1 1
        4.5392788053       -0.6238172658        8.1694523168 m 1 1 1
       -0.1375876649        6.8729045615        9.1892773738 m 1 1 1
        4.1741625987        5.5775003219        9.1348821939 m 1 1 1
        3.5784876236        3.8935584982        8.7272093478 m 1 1 1
        2.9100608023        4.9098242243       10.9236447158 m 1 1 1
        4.5714481735        7.8835935541        8.7745411079 m 1 1 1
       -2.6718555473        6.0296429200       16.6263088388 m 1 1 1
       -4.1114974918        9.0942612533       15.3630469334 m 1 1 1
       -1.0975274907        3.2885909624       13.8219192461 m 1 1 1
        5.0493679454        4.5061876938        9.7598944846 m 1 1 1
