ATOMIC_SPECIES
Cu  63.5460 ../pporb/Cu_ONCV_PBE-1.0.upf auto
C  12.0110 ../pporb/C_ONCV_PBE-1.0.upf auto
O  15.9990 ../pporb/O_ONCV_PBE-1.0.upf auto
H   1.0080 ../pporb/H_ONCV_PBE-1.0.upf auto

NUMERICAL_ORBITAL
../pporb/Cu_gga_8au_100Ry_4s2p2d1f.orb
../pporb/C_gga_7au_100Ry_2s2p1d.orb
../pporb/O_gga_7au_100Ry_2s2p1d.orb
../pporb/H_gga_6au_100Ry_2s1p.orb

LATTICE_CONSTANT
1.8897261258

LATTICE_VECTORS
       10.0867000000        0.0000000000        0.0000000000
       -5.0433500000        8.7353390000        0.0000000000
        0.0000000000        0.0000000000       32.1768000000

ATOMIC_POSITIONS
Cartesian

Cu #label
0.0000   #magnetism
64 #number of atoms
        0.0000000000        0.0000000000        0.0000000000 m 0 0 0
        2.5216245665        1.4559189511        2.0589934320 m 0 0 0
       -0.0826477452        2.9435635922        4.1327557797 m 1 1 1
       10.0481845578       -0.0141468237        6.2135592545 m 1 1 1
       -1.2608375000        2.1838347500        0.0000000000 m 0 0 0
        1.2607870665        3.6397537011        2.0589934320 m 0 0 0
        1.1518121655        0.6653124850        4.1103684972 m 1 1 1
       -1.3253603813        2.1497439721        6.2512418540 m 1 1 1
        1.2608375000        2.1838347500        0.0000000000 m 0 0 0
       -1.2608879335        3.6397537011        2.0589934320 m 0 0 0
        3.8003218773        0.7351501092        4.0276221362 m 1 1 1
        1.1699944843        2.1178291922        6.1397061209 m 1 1 1
        2.5216750000        0.0000000000        0.0000000000 m 0 0 0
       -0.0000504335        1.4559189511        2.0589934320 m 0 0 0
        2.4589449313        2.8701237503        3.9971283857 m 1 1 1
       -2.5531694453        8.8278606643        6.1132816833 m 1 1 1
        5.0433500000        0.0000000000        0.0000000000 m 0 0 0
        7.5649745665        1.4559189511        2.0589934320 m 0 0 0
        5.0511435654        2.9830955141        4.0499532158 m 1 1 1
       -0.1286155496        8.8160725385        6.0721536644 m 1 1 1
        3.7825125000        2.1838347500        0.0000000000 m 0 0 0
        6.3041370665        3.6397537011        2.0589934320 m 0 0 0
        6.2364954389        0.7155654815        4.0571417289 m 1 1 1
        3.7188162449        2.1125609244        6.0237479552 m 1 1 1
        6.3041875000        2.1838347500        0.0000000000 m 0 0 0
        3.7824620665        3.6397537011        2.0589934320 m 0 0 0
        8.7792917777        0.7512860787        4.0755662271 m 1 1 1
        6.3800172388        2.2451389027        6.1705986857 m 1 1 1
        7.5650250000        0.0000000000        0.0000000000 m 0 0 0
        5.0432995665        1.4559189511        2.0589934320 m 0 0 0
        7.4798004849        3.0234745393        4.0861773827 m 1 1 1
        7.5185851886        0.0410922890        6.0999905648 m 1 1 1
        7.5650250000        4.3676695000        0.0000000000 m 0 0 0
       -0.0000504335        5.8235884511        2.0589934320 m 0 0 0
       -2.6596849252        7.2245658434        4.0724043083 m 1 1 1
        7.5340253320        4.4369158538        6.2598291975 m 1 1 1
        6.3041875000        6.5515042500        0.0000000000 m 0 0 0
       -1.2608879335        8.0074232011        2.0589934320 m 0 0 0
       -1.2804662926        5.1244740310        4.0997648202 m 1 1 1
        6.1617888403        6.6036372064        6.2628968823 m 1 1 1
       -1.2608375000        6.5515042500        0.0000000000 m 0 0 0
       -3.7825629335        8.0074232011        2.0589934320 m 0 0 0
        1.2767175030        5.0560247134        4.2228088666 m 1 1 1
       -1.3273275081        6.5494505433        6.2266899068 m 1 1 1
        0.0000000000        4.3676695000        0.0000000000 m 0 0 0
       -2.5217254335        5.8235884511        2.0589934320 m 0 0 0
        0.0034681650        7.2620613577        4.0652846142 m 1 1 1
       -0.0990192197        4.3369155055        6.1051590494 m 1 1 1
        2.5216750000        4.3676695000        0.0000000000 m 0 0 0
        5.0432995665        5.8235884511        2.0589934320 m 0 0 0
        2.4489966299        7.2642278856        4.1282342259 m 1 1 1
        2.5195252968        4.4079447440        6.3295099019 m 1 1 1
        1.2608375000        6.5515042500        0.0000000000 m 0 0 0
        3.7824620665        8.0074232011        2.0589934320 m 0 0 0
        3.7241757719        4.9541954769        4.1633511829 m 1 1 1
        1.1196305839        6.5789120140        6.3052851154 m 1 1 1
        3.7825125000        6.5515042500        0.0000000000 m 0 0 0
        1.2607870665        8.0074232011        2.0589934320 m 0 0 0
        6.1778290834        5.1284758403        4.1422393044 m 1 1 1
        3.6309442759        6.5710948571        6.0907988266 m 1 1 1
        5.0433500000        4.3676695000        0.0000000000 m 0 0 0
        2.5216245665        5.8235884511        2.0589934320 m 0 0 0
        4.9059745387        7.2380586973        4.1503115893 m 1 1 1
        5.0124992309        4.2754127777        6.4491532778 m 1 1 1

C #label
0.0000   #magnetism
1 #number of atoms
        3.3743793440        3.8581033306        8.2005185235 m 1 1 1

O #label
0.0000   #magnetism
28 #number of atoms
        3.2394146534        3.0247145101        9.0423031512 m 1 1 1
        1.4125521472        3.3014182388       11.7182998874 m 1 1 1
        1.3555621142        7.4973390051       17.1260669898 m 1 1 1
        4.1239768966        0.2878749872       14.0986883948 m 1 1 1
       -2.7186774141        8.0438052996       15.7984857186 m 1 1 1
        2.2817366742        5.4492368193       15.3973400705 m 1 1 1
        1.1389523768        7.0011954048        9.0568975154 m 1 1 1
        6.6812299944        0.6683714013       15.3213636554 m 1 1 1
        0.2093838676        2.0760448235        9.4323397735 m 1 1 1
        2.2626718721        0.2229510544        9.2591287570 m 1 1 1
        6.6058664917        3.8416990913       15.7387474281 m 1 1 1
        1.7636614834        6.1708825488       11.6731184813 m 1 1 1
        3.2354834112        8.6859730953       12.3628812177 m 1 1 1
       -0.7779295742        6.8587726923       12.7185955484 m 1 1 1
       -3.0018281603        7.2352499873       11.3623338817 m 1 1 1
       -0.6658587855        4.9247022497        9.4500101969 m 1 1 1
        3.7034430490        8.6545478283        9.0612968415 m 1 1 1
        5.7221173343        7.7968616592       13.5039897228 m 1 1 1
        4.7906179018        5.5345144108       14.3797172212 m 1 1 1
       -0.8848378544        4.4860744030       14.2161211063 m 1 1 1
        5.4299846132        3.7597918440       12.2233882579 m 1 1 1
        6.9739114853        1.9775526125        9.3370794036 m 1 1 1
        8.0493906293        2.8772811930       12.0756437979 m 1 1 1
        3.6076103798        1.8868163876       11.8787097693 m 1 1 1
        6.2394130937        5.1978774590       10.1225177524 m 1 1 1
        4.7432932968        0.5032183253        9.8747845828 m 1 1 1
        3.9868180410        6.0901488486        9.3337277585 m 1 1 1
       -0.8482306361        6.1558366971       17.3338867046 m 1 1 1

H #label
0.0000   #magnetism
55 #number of atoms
        1.0678194412        3.3040997217       12.5895018138 m 1 1 1
        2.2970818470        2.7715829664       11.6422461109 m 1 1 1
        0.4453214383        7.0859696857       17.0253607791 m 1 1 1
        1.3394674795        7.9996566681       17.9391651800 m 1 1 1
        3.5681220111        0.1009140222       14.9194544923 m 1 1 1
        5.0388508398        0.5164757155       14.4480811681 m 1 1 1
       -3.3268635973        7.9543521166       15.0133670381 m 1 1 1
        2.1120581233        6.0352215731       16.1758076793 m 1 1 1
        1.4851762050        5.3558824828       14.8240585841 m 1 1 1
        1.6181626697        6.6081736099        9.8162822818 m 1 1 1
        0.5019830553        6.2996240282        8.9980285857 m 1 1 1
       -1.6709509242        6.5841536533       16.9791604499 m 1 1 1
        1.5868869457        8.5673353543       15.8508847502 m 1 1 1
        2.3174476784        9.2105603296       14.6093326638 m 1 1 1
        1.1186662178        1.8114338362        9.1250243050 m 1 1 1
        0.4469156756        2.4932808194       10.3139473920 m 1 1 1
       -2.9027037908        8.4959340061       10.0817092130 m 1 1 1
        2.2152210450       -0.5082182668        8.5976908080 m 1 1 1
        7.2244375734        4.1608250484       14.9786236929 m 1 1 1
        6.9549137160        2.9403725821       15.8633039501 m 1 1 1
        1.6531619186        5.1387387482       11.5650762328 m 1 1 1
        3.1951843936        8.3488919113       11.4467763093 m 1 1 1
        3.1022672267        9.6499432965       12.3261748618 m 1 1 1
       -0.6034364179        7.6181142573       13.3319647775 m 1 1 1
        0.0675133341        6.6213347693       12.2650904540 m 1 1 1
       -2.1254726895        7.1528978404       11.7541544999 m 1 1 1
       -3.6031513965        7.3809042390       12.2089768581 m 1 1 1
       -0.4376320236        4.1209851262        8.9644383458 m 1 1 1
       -1.6263651211        4.7826084578        9.5209037372 m 1 1 1
        2.7358249282        8.8796923027        8.9033643150 m 1 1 1
        5.2093617961        6.9724918732       13.6839979629 m 1 1 1
        5.0162959156        8.2691209360       13.0298570807 m 1 1 1
        3.8643846716        5.6137096834       14.8007839319 m 1 1 1
        5.4514597366        5.0532160761       14.9578486357 m 1 1 1
        8.8955492354        3.8535355577       13.4538648845 m 1 1 1
        5.1653998277        4.3124381712       13.0085210375 m 1 1 1
        4.6143586590        3.2103231059       12.0900633584 m 1 1 1
        6.8677182110        2.5067962663        8.5329523757 m 1 1 1
        6.0931115129        1.5153568030        9.4797735601 m 1 1 1
        7.1677287785        2.9691777737       12.3981167052 m 1 1 1
        7.8610075781        2.6089336145       11.0889567696 m 1 1 1
        3.7123507898        1.3870799158       12.7616251013 m 1 1 1
        4.1286051126        1.3590129036       11.1857442920 m 1 1 1
        6.1214444529        4.5438975081       10.8409314119 m 1 1 1
        6.5525305983        5.9648671052       10.6392808388 m 1 1 1
        3.9120419702        0.4127359847        9.3056389598 m 1 1 1
        0.1681386536        8.3914208734        9.7684741493 m 1 1 1
        3.8309700063        7.1088105372        9.0742974801 m 1 1 1
        3.6193019730        5.3623074731        8.5398679103 m 1 1 1
        2.5338215226        6.3195722293       12.2021457141 m 1 1 1
        4.1264494446        9.5182070536        9.3020697128 m 1 1 1
       -0.7263883148        5.4190888857       16.7024125143 m 1 1 1
       -3.0180998690        8.7937224363       16.3206168847 m 1 1 1
       -0.8244853339        5.3523907318       13.6718094313 m 1 1 1
        5.0159161523        5.7683836972        9.5071668611 m 1 1 1
