ATOMIC_SPECIES
Cu  63.5460 ../pporb/Cu_ONCV_PBE-1.0.upf auto
C  12.0110 ../pporb/C_ONCV_PBE-1.0.upf auto
O  15.9990 ../pporb/O_ONCV_PBE-1.0.upf auto
H   1.0080 ../pporb/H_ONCV_PBE-1.0.upf auto

NUMERICAL_ORBITAL
../pporb/Cu_gga_8au_100Ry_4s2p2d1f.orb
../pporb/C_gga_7au_100Ry_2s2p1d.orb
../pporb/O_gga_7au_100Ry_2s2p1d.orb
../pporb/H_gga_6au_100Ry_2s1p.orb

LATTICE_CONSTANT
1.8897261258

LATTICE_VECTORS
       10.0867000000        0.0000000000        0.0000000000
       -5.0433500000        8.7353390000        0.0000000000
        0.0000000000        0.0000000000       32.1768000000

ATOMIC_POSITIONS
Cartesian

Cu #label
0.0000   #magnetism
64 #number of atoms
        0.0000000000        0.0000000000        0.0000000000 m 0 0 0
        2.5216245665        1.4559189511        2.0589934320 m 0 0 0
        0.0655282538        2.8600032461        4.1446127849 m 1 1 1
       -5.1304043695        8.8354413027        6.2475223494 m 1 1 1
       -1.2608375000        2.1838347500        0.0000000000 m 0 0 0
        1.2607870665        3.6397537011        2.0589934320 m 0 0 0
        1.1527426582        0.5975843237        4.2144272954 m 1 1 1
       -1.2032602378        2.1927080085        6.2780456630 m 1 1 1
        1.2608375000        2.1838347500        0.0000000000 m 0 0 0
       -1.2608879335        3.6397537011        2.0589934320 m 0 0 0
        3.8453892894        0.5730995695        4.2289510103 m 1 1 1
        1.2185142525        2.2152320224        6.3545522565 m 1 1 1
        2.5216750000        0.0000000000        0.0000000000 m 0 0 0
       -0.0000504335        1.4559189511        2.0589934320 m 0 0 0
        2.4735747609        2.8508407900        4.0643628792 m 1 1 1
       -2.5640704982        8.7769997459        6.2212564712 m 1 1 1
        5.0433500000        0.0000000000        0.0000000000 m 0 0 0
        7.5649745665        1.4559189511        2.0589934320 m 0 0 0
        5.0587369739        2.9114254884        4.1263427663 m 1 1 1
       -0.0437392130        8.7616317984        6.3014733827 m 1 1 1
        3.7825125000        2.1838347500        0.0000000000 m 0 0 0
        6.3041370665        3.6397537011        2.0589934320 m 0 0 0
        6.3120398328        0.7444942059        4.0515627913 m 1 1 1
        3.7571235733        2.2342606086        6.2348997460 m 1 1 1
        6.3041875000        2.1838347500        0.0000000000 m 0 0 0
        3.7824620665        3.6397537011        2.0589934320 m 0 0 0
        8.8277620109        0.6879617811        4.1430928914 m 1 1 1
        6.3800004220        2.3466453314        5.9858086098 m 1 1 1
        7.5650250000        0.0000000000        0.0000000000 m 0 0 0
        5.0432995665        1.4559189511        2.0589934320 m 0 0 0
        7.5754451260        2.9715091604        4.1300100823 m 1 1 1
        2.4107924662        8.6628213096        6.1900020308 m 1 1 1
        7.5650250000        4.3676695000        0.0000000000 m 0 0 0
       -0.0000504335        5.8235884511        2.0589934320 m 0 0 0
       -2.4783980661        7.2678333269        4.1190487979 m 1 1 1
        7.6184341655        4.5038707377        6.3237588608 m 1 1 1
        6.3041875000        6.5515042500        0.0000000000 m 0 0 0
       -1.2608879335        8.0074232011        2.0589934320 m 0 0 0
       -1.2493331385        5.0122458723        4.1605170720 m 1 1 1
       -3.6910380767        6.7202569560        6.2492111041 m 1 1 1
       -1.2608375000        6.5515042500        0.0000000000 m 0 0 0
       -3.7825629335        8.0074232011        2.0589934320 m 0 0 0
        1.3682577592        5.1376186684        4.1535466460 m 1 1 1
       -1.2097977550        6.5661359545        6.1626303755 m 1 1 1
        0.0000000000        4.3676695000        0.0000000000 m 0 0 0
       -2.5217254335        5.8235884511        2.0589934320 m 0 0 0
        0.0345675906        7.2280883295        4.0351324676 m 1 1 1
        0.1341475386        4.3983085906        6.1859139689 m 1 1 1
        2.5216750000        4.3676695000        0.0000000000 m 0 0 0
        5.0432995665        5.8235884511        2.0589934320 m 0 0 0
        2.4207053282        7.3607402977        4.1127395068 m 1 1 1
        2.6102658795        4.4119433633        6.0948885008 m 1 1 1
        1.2608375000        6.5515042500        0.0000000000 m 0 0 0
        3.7824620665        8.0074232011        2.0589934320 m 0 0 0
        3.8909443160        5.1875743279        4.0778710253 m 1 1 1
        1.2042999247        6.5217991537        6.2541453861 m 1 1 1
        3.7825125000        6.5515042500        0.0000000000 m 0 0 0
        1.2607870665        8.0074232011        2.0589934320 m 0 0 0
        6.3427648490        5.1763287999        4.0786614052 m 1 1 1
        3.8125009109        6.5372507663        6.0209114077 m 1 1 1
        5.0433500000        4.3676695000        0.0000000000 m 0 0 0
        2.5216245665        5.8235884511        2.0589934320 m 0 0 0
        5.0134351182        7.2839707360        3.9267093592 m 1 1 1
        5.0933151515        4.5112631539        6.2709570373 m 1 1 1

C #label
0.0000   #magnetism
1 #number of atoms
        4.8905808908        4.4741878887        8.3720232000 m 1 1 1

O #label
0.0000   #magnetism
28 #number of atoms
        5.1707975199        3.5773462191        9.1236034918 m 1 1 1
        1.9325437520        6.9338462673       13.1985087133 m 1 1 1
        4.0078794705        0.6830690914       17.5036598423 m 1 1 1
        2.4246686816        1.5557251544       15.4738138385 m 1 1 1
        2.3678031231        6.4111347205       17.0882289312 m 1 1 1
        8.1193653702        4.7763496887       17.9302855253 m 1 1 1
        1.6990499868        8.7656987332       11.2825149854 m 1 1 1
        5.7879857693        3.2268450070       16.8861929935 m 1 1 1
        1.8410866560        5.0150112983       11.3666482855 m 1 1 1
        0.6741764442        1.9042425381        9.7828553972 m 1 1 1
        3.5986657459        4.0001288231       15.5594151651 m 1 1 1
        5.7600430990        1.6483401924       13.2635026372 m 1 1 1
        7.7481228049        2.3795244461       14.9361770740 m 1 1 1
       -1.5510080048        9.0760931190       13.5254661612 m 1 1 1
        1.3762548231        0.8705596967       11.9594705724 m 1 1 1
       -1.8746246832        6.3647197294        9.6896525400 m 1 1 1
        3.3762069715        9.4511299713        9.4038899687 m 1 1 1
        9.9651138128        0.8165603749       14.4438085633 m 1 1 1
        3.9839791655        7.1720760477       14.9161695330 m 1 1 1
       -0.4878715990        6.7896105915       14.3598693779 m 1 1 1
        5.8148673301        5.9077245950       13.5036981933 m 1 1 1
       -0.7302440418        4.2566646145       10.9814088709 m 1 1 1
       -1.8869647765        4.8123360505       13.4928654104 m 1 1 1
        3.9956005272        3.7677364951       12.9224964909 m 1 1 1
        5.9563988174        7.2128076489       11.0784719405 m 1 1 1
        0.3429398271        7.6691264116        9.2051909652 m 1 1 1
        3.7807763596        6.5165114944        9.7547525004 m 1 1 1
       -0.3087072414        6.9728675049       17.0897130093 m 1 1 1

H #label
0.0000   #magnetism
55 #number of atoms
        1.0831400935        6.7976331311       13.6566210185 m 1 1 1
        1.8673817138        7.7201654326       12.6165928490 m 1 1 1
        3.3484425747        0.8021094284       16.7231647983 m 1 1 1
        4.6713060298        1.3654588192       17.2745652799 m 1 1 1
        1.4325210347        1.4817220135       15.3570218445 m 1 1 1
        2.6253430134        2.4971793525       15.5937317415 m 1 1 1
        2.4851575446        6.4044665021       18.0820674828 m 1 1 1
       -1.6606279162        4.0227757279       17.2971043436 m 1 1 1
       -1.2417832856        5.4883790191       17.6301429150 m 1 1 1
        1.0254587780        8.4475814172       10.6446468691 m 1 1 1
        2.4860283089        9.0138468453       10.6741305044 m 1 1 1
       -0.5256918495        7.8782309127       17.5024011640 m 1 1 1
        6.5924324951        2.9931375526       16.3455483087 m 1 1 1
        6.2555953174        3.6759817820       17.6870102213 m 1 1 1
        1.6917777786        5.7916089922       11.9674869878 m 1 1 1
        2.3268667223        5.4561973207       10.6558698845 m 1 1 1
        1.2484909735        1.6818712185       10.6261386714 m 1 1 1
        1.2005692683        2.1951943086        9.0398612386 m 1 1 1
        4.3826126500        3.7760185299       16.0992341241 m 1 1 1
        3.0600684484        4.6121772592       16.1181454842 m 1 1 1
        6.1448923106        1.2826282221       12.3753403619 m 1 1 1
        7.0488703953        2.0883075866       14.2836414933 m 1 1 1
        7.9219730439        3.3289558090       14.6463968028 m 1 1 1
       -1.9671145970        9.4178809119       14.4440542381 m 1 1 1
        4.3811046536        0.7889816788       13.4986736879 m 1 1 1
       -2.8312004084        9.4132018663       12.4433290178 m 1 1 1
        0.7623762181        0.9933648837       12.7403709897 m 1 1 1
       -1.4980043942        5.6820816009       10.3270970094 m 1 1 1
       -2.6700076284        6.6608729851       10.1445065822 m 1 1 1
        9.3378833238        1.1626998978        9.4183387980 m 1 1 1
        4.4616462537        8.7554053016       14.9007782959 m 1 1 1
        9.2765115008        1.5030308976       14.3962626743 m 1 1 1
        3.1972587089        6.9218768265       14.3073767237 m 1 1 1
        3.6341220604        6.9276644439       15.7986895069 m 1 1 1
       -0.9997589839        5.9416363864       14.1181040209 m 1 1 1
        5.2428126808        6.3789392433       14.2624184795 m 1 1 1
        5.1689378848        5.2386967756       13.3223844350 m 1 1 1
       -0.6559027297        3.5001039108       10.3539758127 m 1 1 1
        0.1812493224        4.5470973261       11.1038353069 m 1 1 1
        7.3005579110        5.3251497517       13.4789315070 m 1 1 1
       -1.6231991272        4.6774053917       12.5531188999 m 1 1 1
        3.6032476361        3.8241402255       13.8117274101 m 1 1 1
        3.3219593888        4.0538789911       12.2314923618 m 1 1 1
        5.8263252161        6.6746812960       11.9209811721 m 1 1 1
       -4.0368111445        8.1766620754       11.3255062182 m 1 1 1
        0.7422000853        7.9451300026        8.3649544980 m 1 1 1
       -0.6210900750        7.4794707996        9.1249021613 m 1 1 1
        3.2613967673        7.2492539423        9.3310545856 m 1 1 1
        4.2908758460        5.3626202629        8.8047571264 m 1 1 1
        5.1941620274        2.4363614083       13.0781629136 m 1 1 1
        3.1610007923        9.1361212193        8.5378251862 m 1 1 1
       -0.4967705067        6.8997854374       16.1306656186 m 1 1 1
        1.3874835890        6.6578800350       16.9298712819 m 1 1 1
       -1.0341397647        7.5331549142       13.9818671213 m 1 1 1
        4.5981493546        7.0506811902       10.2267600582 m 1 1 1
