ATOMIC_SPECIES
Cu  63.5460 ../pporb/Cu_ONCV_PBE-1.0.upf auto
C  12.0110 ../pporb/C_ONCV_PBE-1.0.upf auto
O  15.9990 ../pporb/O_ONCV_PBE-1.0.upf auto
H   1.0080 ../pporb/H_ONCV_PBE-1.0.upf auto

NUMERICAL_ORBITAL
../pporb/Cu_gga_8au_100Ry_4s2p2d1f.orb
../pporb/C_gga_7au_100Ry_2s2p1d.orb
../pporb/O_gga_7au_100Ry_2s2p1d.orb
../pporb/H_gga_6au_100Ry_2s1p.orb

LATTICE_CONSTANT
1.8897261258

LATTICE_VECTORS
       10.0867000000        0.0000000000        0.0000000000
       -5.0433500000        8.7353390000        0.0000000000
        0.0000000000        0.0000000000       32.1768000000

ATOMIC_POSITIONS
Cartesian

Cu #label
0.0000   #magnetism
64 #number of atoms
        0.0000000000        0.0000000000        0.0000000000 m 0 0 0
        2.5216245665        1.4559189511        2.0589934320 m 0 0 0
       -0.0649069304        2.8554960340        4.0006964248 m 1 1 1
        0.0107548916       -0.1020414534        6.1387561852 m 1 1 1
       -1.2608375000        2.1838347500        0.0000000000 m 0 0 0
        1.2607870665        3.6397537011        2.0589934320 m 0 0 0
        1.2501498462        0.5664638858        4.1969289655 m 1 1 1
        8.8116595153        2.1817472701        6.1559690584 m 1 1 1
        1.2608375000        2.1838347500        0.0000000000 m 0 0 0
       -1.2608879335        3.6397537011        2.0589934320 m 0 0 0
        3.6597450461        0.7834154677        4.1333428235 m 1 1 1
        1.1848993651        2.1491848258        6.1237246603 m 1 1 1
        2.5216750000        0.0000000000        0.0000000000 m 0 0 0
       -0.0000504335        1.4559189511        2.0589934320 m 0 0 0
        2.3192118286        2.7831403085        4.0320722148 m 1 1 1
        2.5464747432       -0.0774343177        6.2590447139 m 1 1 1
        5.0433500000        0.0000000000        0.0000000000 m 0 0 0
        7.5649745665        1.4559189511        2.0589934320 m 0 0 0
        4.8877455525        2.8806431007        4.1575301059 m 1 1 1
        5.1366505559       -0.1026694812        6.3278894319 m 1 1 1
        3.7825125000        2.1838347500        0.0000000000 m 0 0 0
        6.3041370665        3.6397537011        2.0589934320 m 0 0 0
        6.2517586949        0.6495551566        4.0984001833 m 1 1 1
        3.7176395292        2.1502729427        6.0978357741 m 1 1 1
        6.3041875000        2.1838347500        0.0000000000 m 0 0 0
        3.7824620665        3.6397537011        2.0589934320 m 0 0 0
        8.7098416660        0.7486567348        4.0593313550 m 1 1 1
        6.2745751621        2.0980433566        6.1442971383 m 1 1 1
        7.5650250000        0.0000000000        0.0000000000 m 0 0 0
        5.0432995665        1.4559189511        2.0589934320 m 0 0 0
        7.5068766025        2.9760575314        4.0839204259 m 1 1 1
        7.5931656436        0.0214222729        6.1345683857 m 1 1 1
        7.5650250000        4.3676695000        0.0000000000 m 0 0 0
       -0.0000504335        5.8235884511        2.0589934320 m 0 0 0
       -2.4098064490        7.2302181738        4.0601973995 m 1 1 1
       -2.6081218166        4.2617305666        6.1745815656 m 1 1 1
        6.3041875000        6.5515042500        0.0000000000 m 0 0 0
       -1.2608879335        8.0074232011        2.0589934320 m 0 0 0
       -1.2839642031        5.0529554283        4.1120882313 m 1 1 1
       -3.7974026986        6.5368181065        6.2695562092 m 1 1 1
       -1.2608375000        6.5515042500        0.0000000000 m 0 0 0
       -3.7825629335        8.0074232011        2.0589934320 m 0 0 0
        1.2836692969        5.1219465770        4.1225442502 m 1 1 1
       -1.3349856329        6.3331808042        6.3820072581 m 1 1 1
        0.0000000000        4.3676695000        0.0000000000 m 0 0 0
       -2.5217254335        5.8235884511        2.0589934320 m 0 0 0
        0.0138353998        7.2325942956        4.1580915307 m 1 1 1
       -0.1072955571        4.2728754005        6.2639856270 m 1 1 1
        2.5216750000        4.3676695000        0.0000000000 m 0 0 0
        5.0432995665        5.8235884511        2.0589934320 m 0 0 0
        2.5893054612        7.2220075441        4.0712671910 m 1 1 1
        2.5829984243        4.2931924492        6.1184235580 m 1 1 1
        1.2608375000        6.5515042500        0.0000000000 m 0 0 0
        3.7824620665        8.0074232011        2.0589934320 m 0 0 0
        3.7471572726        5.0051139488        4.1462224464 m 1 1 1
        1.3214407580        6.4999914567        6.2509408020 m 1 1 1
        3.7825125000        6.5515042500        0.0000000000 m 0 0 0
        1.2607870665        8.0074232011        2.0589934320 m 0 0 0
        6.1336901079        5.0290100490        4.2576589803 m 1 1 1
        3.7739274301        6.5658492754        6.0736702582 m 1 1 1
        5.0433500000        4.3676695000        0.0000000000 m 0 0 0
        2.5216245665        5.8235884511        2.0589934320 m 0 0 0
        5.0350686143        7.1412889397        4.0734248519 m 1 1 1
        4.9366568124        4.3412236136        6.5113917309 m 1 1 1

C #label
0.0000   #magnetism
1 #number of atoms
        3.9640732937        4.2670218372        8.3073932080 m 1 1 1

O #label
0.0000   #magnetism
28 #number of atoms
        3.9683007371        3.2002496357        8.8655354515 m 1 1 1
        3.8228451582        8.1329938364       11.8991909851 m 1 1 1
        3.2115881787        2.0949317768       16.2047395566 m 1 1 1
        2.1185245575        1.5771063087       11.7013935295 m 1 1 1
        4.6627345436        6.8927840398       15.8387069680 m 1 1 1
       -0.3549300412        6.9637101902       16.5841571672 m 1 1 1
        6.0415048219       -0.0762426551        9.2566503615 m 1 1 1
        7.1975837333        2.7007068458       15.7564404499 m 1 1 1
        4.2861540906        4.6359556260       13.0023702743 m 1 1 1
        2.5969670448        0.6860242936        9.2052279439 m 1 1 1
        4.8781604503        4.3212829917       15.6727428600 m 1 1 1
        9.0643380961        2.3057848138       11.6066438072 m 1 1 1
       -0.4740271751        2.8245152239       14.2850961786 m 1 1 1
        5.1878168761        1.2893753346       11.6811975472 m 1 1 1
        6.2962571120        7.1428532139        9.0306285679 m 1 1 1
        0.7047925820        5.8935986622        9.7447658665 m 1 1 1
        1.0180860385        3.3302017481        9.0919112741 m 1 1 1
        1.7184928857        1.0138395157       14.2143819773 m 1 1 1
        5.7316300359        7.2356435183       13.5672166702 m 1 1 1
        1.4730633119        8.0454743354       12.9441990279 m 1 1 1
        7.8933391858        5.8203680885       12.7328130233 m 1 1 1
        1.7864871300        4.6624758502       12.1998023230 m 1 1 1
        0.1063148487        5.5439525042       14.0604776695 m 1 1 1
        6.5437951241        3.3127538179       13.1010389299 m 1 1 1
        8.0274462856        5.5722255302       10.1018562655 m 1 1 1
        7.7797725027        2.4981183676        8.9996914259 m 1 1 1
        3.6635718513        6.9140628644        9.3124350864 m 1 1 1
        2.1676933196        8.2444205730       15.4465987555 m 1 1 1

H #label
0.0000   #magnetism
55 #number of atoms
        2.9428915260        7.8115384959       12.2093423780 m 1 1 1
        3.9478039112        7.6413814578       11.0660368493 m 1 1 1
        2.7765447727        1.4995824741       15.6059145922 m 1 1 1
        3.0713971833        1.6026020216       17.0150161171 m 1 1 1
        2.1200977745        1.3605393549       12.6797238091 m 1 1 1
        1.7983142446        2.5049311490       11.7269306684 m 1 1 1
        4.5765217773        5.9202655446       15.9269864824 m 1 1 1
       -0.2653077365        6.3702805130       15.8266448902 m 1 1 1
        0.1324110467        6.5749276724       17.3585841537 m 1 1 1
        5.5912953429        0.2209024301       10.1080504440 m 1 1 1
        6.7046184701        0.6166225941        8.9733431852 m 1 1 1
        1.3148182258        7.9507384797       15.8331268177 m 1 1 1
        8.0723451088        2.9029288882       15.4280048766 m 1 1 1
        7.1670418732        1.7583750672       15.9551239470 m 1 1 1
        4.2685266969        4.6580916022       14.0333454308 m 1 1 1
        4.8967303416        5.3643337109       12.7868609778 m 1 1 1
        2.5004872071        1.0571118647       10.1403533677 m 1 1 1
        3.5803254105        0.8346569696        9.0367998913 m 1 1 1
        5.6170845932        3.7452177353       16.0590308615 m 1 1 1
        4.0836939461        3.7676735435       15.7246972244 m 1 1 1
       -0.1765908284        2.3476863538       11.1187176319 m 1 1 1
        9.4132538099        2.6043585815       13.3158280576 m 1 1 1
       -0.0722730134        3.7482602999       14.2707018945 m 1 1 1
        4.2789111275        1.5602358057       11.7640710557 m 1 1 1
        5.8406782193        2.0112211175       11.9979950902 m 1 1 1
        6.9471761469        6.5874271558        9.4980945863 m 1 1 1
       -3.2877790064        8.0725046888        9.1169157515 m 1 1 1
        0.9705507386        6.8219323192        9.4919004410 m 1 1 1
        1.0069106554        5.2565784684        9.0720675150 m 1 1 1
        1.8024925354        2.8483555951        8.8032623588 m 1 1 1
        1.3096317701        0.0697592036       14.0691254596 m 1 1 1
        0.9277051429        1.6507928027       14.3732557257 m 1 1 1
        4.9836892979        7.5947774699       13.0166876536 m 1 1 1
        5.4164712899        7.0813168908       14.5327373158 m 1 1 1
        0.9466564726        7.3092210022       13.2911042641 m 1 1 1
        7.2446929570        6.4922066492       13.1236194366 m 1 1 1
        7.3940834925        4.9459386388       12.8260716366 m 1 1 1
        1.4472240718        5.0697667055       11.3522058444 m 1 1 1
        2.7666747805        4.6066637781       12.1374549412 m 1 1 1
       -0.8022358505        5.6476682786       13.5972426254 m 1 1 1
        0.7065506798        5.0853249045       13.4293612786 m 1 1 1
        6.7240253332        3.0339562887       14.0413269549 m 1 1 1
        5.6254844330        3.6477912419       13.1723827625 m 1 1 1
       -1.1585835272        5.7728470807        9.7847528351 m 1 1 1
        7.9912142327        5.6436358463       11.0797010483 m 1 1 1
        7.7268601900        3.4885982706        8.9439138104 m 1 1 1
        7.9666538153        2.3098478894        9.9883310737 m 1 1 1
        3.3828829270        7.4530772021        8.5427979523 m 1 1 1
        3.6434863499        5.2275373630        8.8023215934 m 1 1 1
        8.8017677441        1.3700613183       11.5703288276 m 1 1 1
        0.2736602184        2.8833073525        8.6062356966 m 1 1 1
        2.0040455250        8.4064109411       14.4875451728 m 1 1 1
        3.7503270524        7.2273983724       15.7169696982 m 1 1 1
        0.7822206792        8.7352954671       12.6331936047 m 1 1 1
        4.6949593099        7.0481820080        9.1704632878 m 1 1 1
