ATOMIC_SPECIES
Cu  63.5460 ../pporb/Cu_ONCV_PBE-1.0.upf auto
C  12.0110 ../pporb/C_ONCV_PBE-1.0.upf auto
O  15.9990 ../pporb/O_ONCV_PBE-1.0.upf auto
H   1.0080 ../pporb/H_ONCV_PBE-1.0.upf auto

NUMERICAL_ORBITAL
../pporb/Cu_gga_8au_100Ry_4s2p2d1f.orb
../pporb/C_gga_7au_100Ry_2s2p1d.orb
../pporb/O_gga_7au_100Ry_2s2p1d.orb
../pporb/H_gga_6au_100Ry_2s1p.orb

LATTICE_CONSTANT
1.8897261258

LATTICE_VECTORS
       10.0867000000        0.0000000000        0.0000000000
       -5.0433500000        8.7353390000        0.0000000000
        0.0000000000        0.0000000000       32.1768000000

ATOMIC_POSITIONS
Cartesian

Cu #label
0.0000   #magnetism
64 #number of atoms
        0.0000000000        0.0000000000        0.0000000000 m 0 0 0
        2.5216245665        1.4559189511        2.0589934320 m 0 0 0
       -0.0616360043        2.7734204257        4.1230241189 m 1 1 1
        4.7967795942        8.6075236123        6.2673571225 m 1 1 1
       -1.2608375000        2.1838347500        0.0000000000 m 0 0 0
        1.2607870665        3.6397537011        2.0589934320 m 0 0 0
        1.2587782745        0.6354881745        4.1227563226 m 1 1 1
       -1.4562383005        1.9330984946        6.3058861275 m 1 1 1
        1.2608375000        2.1838347500        0.0000000000 m 0 0 0
       -1.2608879335        3.6397537011        2.0589934320 m 0 0 0
        3.7041140130        0.7337402385        4.1313603086 m 1 1 1
        1.1891990667        2.0030677148        6.2497319112 m 1 1 1
        2.5216750000        0.0000000000        0.0000000000 m 0 0 0
       -0.0000504335        1.4559189511        2.0589934320 m 0 0 0
        2.4307597149        2.8990176668        4.1858245211 m 1 1 1
       -2.5987580237        8.5326388991        6.2327284984 m 1 1 1
        5.0433500000        0.0000000000        0.0000000000 m 0 0 0
        7.5649745665        1.4559189511        2.0589934320 m 0 0 0
        5.1244403253        2.8397218547        4.1875437301 m 1 1 1
        4.8982465750       -0.0668335731        6.2712712761 m 1 1 1
        3.7825125000        2.1838347500        0.0000000000 m 0 0 0
        6.3041370665        3.6397537011        2.0589934320 m 0 0 0
        6.2088626936        0.6254340706        4.2000025462 m 1 1 1
        3.6294879467        2.0871382975        6.1313407819 m 1 1 1
        6.3041875000        2.1838347500        0.0000000000 m 0 0 0
        3.7824620665        3.6397537011        2.0589934320 m 0 0 0
        8.7337173055        0.6931160707        4.1765637832 m 1 1 1
        6.2379562006        2.1378790055        6.3295249648 m 1 1 1
        7.5650250000        0.0000000000        0.0000000000 m 0 0 0
        5.0432995665        1.4559189511        2.0589934320 m 0 0 0
        7.4995246276        2.8636195186        4.1154618650 m 1 1 1
        2.2803004284        8.5265979506        6.3900952444 m 1 1 1
        7.5650250000        4.3676695000        0.0000000000 m 0 0 0
       -0.0000504335        5.8235884511        2.0589934320 m 0 0 0
       -2.4833391092        7.1960990913        4.1436909226 m 1 1 1
        7.5539760239        4.3853661672        6.3254746299 m 1 1 1
        6.3041875000        6.5515042500        0.0000000000 m 0 0 0
       -1.2608879335        8.0074232011        2.0589934320 m 0 0 0
       -1.2453584439        5.0242206671        4.1931440732 m 1 1 1
       -3.8147382101        6.3838682626        6.1615098274 m 1 1 1
       -1.2608375000        6.5515042500        0.0000000000 m 0 0 0
       -3.7825629335        8.0074232011        2.0589934320 m 0 0 0
        1.2228378707        5.0381877799        4.0627554219 m 1 1 1
       -1.2362135361        6.4024626882        6.1305101103 m 1 1 1
        0.0000000000        4.3676695000        0.0000000000 m 0 0 0
       -2.5217254335        5.8235884511        2.0589934320 m 0 0 0
       -0.0523605797        7.2365738116        4.0422785561 m 1 1 1
       -0.1665648495        4.0808612722        6.3646905966 m 1 1 1
        2.5216750000        4.3676695000        0.0000000000 m 0 0 0
        5.0432995665        5.8235884511        2.0589934320 m 0 0 0
        2.4449612145        7.2980299843        4.2084267809 m 1 1 1
        2.3919458027        4.1797591236        6.2826605351 m 1 1 1
        1.2608375000        6.5515042500        0.0000000000 m 0 0 0
        3.7824620665        8.0074232011        2.0589934320 m 0 0 0
        3.8214095796        4.9672163527        4.0931006126 m 1 1 1
        1.2973165386        6.3188457996        6.1367387749 m 1 1 1
        3.7825125000        6.5515042500        0.0000000000 m 0 0 0
        1.2607870665        8.0074232011        2.0589934320 m 0 0 0
        6.4172190890        5.0869238933        4.1817338172 m 1 1 1
        3.7336737664        6.4740292226        6.1923495169 m 1 1 1
        5.0433500000        4.3676695000        0.0000000000 m 0 0 0
        2.5216245665        5.8235884511        2.0589934320 m 0 0 0
        5.0508548950        7.1651037632        4.0902265473 m 1 1 1
        4.9352702021        4.2825190987        6.4993066611 m 1 1 1

C #label
0.0000   #magnetism
1 #number of atoms
        4.4230081671        4.4675073998        8.4376005320 m 1 1 1

O #label
0.0000   #magnetism
28 #number of atoms
        4.1663166830        3.5945964916        9.2364657539 m 1 1 1
        4.2515253642        6.2431914600       12.3079574669 m 1 1 1
       -1.9459462881        7.5792441259       16.8898899062 m 1 1 1
        3.4224656040        1.0651959845       14.9896949380 m 1 1 1
        4.6833158388        6.2152143889       15.8903308967 m 1 1 1
        0.2364968000        5.9843147361       16.4990083087 m 1 1 1
        1.6005487134        7.9550355895        8.9965235141 m 1 1 1
        7.5827346228        2.0544889636       16.0998522470 m 1 1 1
        0.7829889903        2.6081886507        9.3131019604 m 1 1 1
        2.2749015457        1.9332585457       11.3927727863 m 1 1 1
        5.1170874627        3.4575060283       15.4134053996 m 1 1 1
        6.7220992378        2.1971757203       12.2416545433 m 1 1 1
       -1.3733684770        2.7567723225       13.8827010600 m 1 1 1
        5.1470963240        0.0064807831       13.2133669412 m 1 1 1
       -1.9068583591        7.2257058308       12.4892936313 m 1 1 1
       -1.5592370937        4.7061259036        9.1035725150 m 1 1 1
       -0.6723047202        0.3599080301        9.0212200512 m 1 1 1
        1.0233546121        1.3357444364       13.7453140933 m 1 1 1
        5.9916453754        7.5399542592       13.9045341564 m 1 1 1
        1.5576750492        6.5238081366       12.4694178848 m 1 1 1
       -0.1419462755        5.4070041284       13.9536859543 m 1 1 1
        7.2160689882        2.2268229223        9.4950716931 m 1 1 1
        1.1840030162        5.2134091723        9.8906727547 m 1 1 1
        4.2501235185        3.5368945690       12.6566235555 m 1 1 1
       -2.4678668967        7.1334411175        9.8185009797 m 1 1 1
        4.0905426015        0.6312134813        9.6451618013 m 1 1 1
        5.0963600855        6.6863302669        9.7016882346 m 1 1 1
        2.4111505697        7.5704594834       16.0775990504 m 1 1 1

H #label
0.0000   #magnetism
55 #number of atoms
        3.3309658926        6.5439894494       12.6805101566 m 1 1 1
        4.2497809105        6.3337118702       11.3566259753 m 1 1 1
       -2.1763850637        7.7653612031       15.9402154491 m 1 1 1
       -1.7819973822        8.5135146212       17.1495141019 m 1 1 1
        2.6423660919        1.4823368877       14.4994689333 m 1 1 1
        3.9004122925        1.8411281231       15.3939461750 m 1 1 1
        4.9829499731        6.6098411670       16.7505263204 m 1 1 1
        0.0615129822        5.3427670039       17.2349704536 m 1 1 1
       -0.5936221133        6.6401690573       16.5932624423 m 1 1 1
        0.7219570457        8.3344665737        9.1677798190 m 1 1 1
        1.5674442945        6.9737285562        9.1751012937 m 1 1 1
        1.6978533779        7.0605759688       16.6180268079 m 1 1 1
        7.9307542600        2.6521138920       16.8016428467 m 1 1 1
       -1.9804089439        2.2848300620       15.2266027567 m 1 1 1
        1.3080154285        2.3113498543       10.0962366038 m 1 1 1
        1.3629979342        2.5303182263        8.5259921869 m 1 1 1
        2.9446665438        2.5942675473       11.7110715347 m 1 1 1
        1.8223902601        1.6494871019       12.2044292332 m 1 1 1
        6.0191474203        3.1460211388       15.7267200123 m 1 1 1
        5.1027005798        4.4058638405       15.5898620923 m 1 1 1
        7.0083121941        2.0392928210       11.3243398961 m 1 1 1
        8.0093845286        2.5746037591       13.2440915814 m 1 1 1
       -1.0904541196        3.6590391592       13.7090536574 m 1 1 1
        4.5513862887        0.4008958313       13.8584624073 m 1 1 1
        5.6458832235        0.7607274540       12.8729026281 m 1 1 1
       -1.0831004891        7.8147412204       12.6051537192 m 1 1 1
       -2.5679030282        7.4568254031       13.1832790342 m 1 1 1
       -1.9304595975        5.5146787856        9.5565961876 m 1 1 1
       -0.5629923359        4.8195323609        9.2646701442 m 1 1 1
        8.5193325671        0.6236586999        9.3108663933 m 1 1 1
       -4.1758727467        9.0283004877       13.8591640106 m 1 1 1
        0.1824644311        1.8165492275       13.9024515655 m 1 1 1
        5.3915431712        7.2555938489       13.1777102651 m 1 1 1
        5.7569920183        7.0432984336       14.7596752572 m 1 1 1
        1.0822556987        5.9260035111       13.0993951135 m 1 1 1
       -0.1358296672        5.6011804281       14.9487531605 m 1 1 1
       -0.7134868553        6.0251894616       13.4530669659 m 1 1 1
        7.7499173663        3.0548193321        9.3590993480 m 1 1 1
        6.8071313234        1.8590908840        8.6372783800 m 1 1 1
        1.1519119776        5.3924014800       10.8860440188 m 1 1 1
        1.1654188471        4.2172626053        9.7885497470 m 1 1 1
        4.4996389596        3.4717752902       13.5808921561 m 1 1 1
        4.2843058901        4.5512091935       12.5177533096 m 1 1 1
       -2.3805620366        7.1060637967       10.8241323944 m 1 1 1
       -1.9405302248        7.8502758027        9.4133709637 m 1 1 1
        4.1306163840        1.4950892048        9.2424757867 m 1 1 1
        3.7709210552        0.8092899898       10.5535036973 m 1 1 1
        4.5877407747        7.4892454355        9.3155072124 m 1 1 1
        4.7492347180        5.5859510605        8.8354842894 m 1 1 1
        6.0367744817        2.9316747030       12.2052220224 m 1 1 1
       -0.0514509350        1.1182884613        9.0516222816 m 1 1 1
        2.3960134324        8.4344307017       16.5459128539 m 1 1 1
        3.7192814390        6.5895621610       15.8032846575 m 1 1 1
        1.1981549950        7.4105502109       12.7290660771 m 1 1 1
        6.0990613737        6.8715322760        9.4929589963 m 1 1 1
