ATOMIC_SPECIES
Cu  63.5460 ../pporb/Cu_ONCV_PBE-1.0.upf auto
C  12.0110 ../pporb/C_ONCV_PBE-1.0.upf auto
O  15.9990 ../pporb/O_ONCV_PBE-1.0.upf auto
H   1.0080 ../pporb/H_ONCV_PBE-1.0.upf auto

NUMERICAL_ORBITAL
../pporb/Cu_gga_8au_100Ry_4s2p2d1f.orb
../pporb/C_gga_7au_100Ry_2s2p1d.orb
../pporb/O_gga_7au_100Ry_2s2p1d.orb
../pporb/H_gga_6au_100Ry_2s1p.orb

LATTICE_CONSTANT
1.8897261258

LATTICE_VECTORS
       10.0867000000        0.0000000000        0.0000000000
       -5.0433500000        8.7353390000        0.0000000000
        0.0000000000        0.0000000000       32.1768000000

ATOMIC_POSITIONS
Cartesian

Cu #label
0.0000   #magnetism
64 #number of atoms
        0.0000000000        0.0000000000        0.0000000000 m 0 0 0
        2.5216245665        1.4559189511        2.0589934320 m 0 0 0
        0.1301848336        3.0218217632        4.1803629523 m 1 1 1
        0.0125070660        0.1180715749        6.2213327421 m 1 1 1
       -1.2608375000        2.1838347500        0.0000000000 m 0 0 0
        1.2607870665        3.6397537011        2.0589934320 m 0 0 0
        1.3137204648        0.8012059224        4.1157674130 m 1 1 1
       -1.2165345846        2.1717049691        6.0995527942 m 1 1 1
        1.2608375000        2.1838347500        0.0000000000 m 0 0 0
       -1.2608879335        3.6397537011        2.0589934320 m 0 0 0
        3.8083835271        0.8539744912        4.0985685314 m 1 1 1
        1.2868060644        2.1436207261        6.3103063585 m 1 1 1
        2.5216750000        0.0000000000        0.0000000000 m 0 0 0
       -0.0000504335        1.4559189511        2.0589934320 m 0 0 0
        2.5403018654        2.9970455446        4.1002784853 m 1 1 1
        2.5677818312        0.0654689585        6.1597202542 m 1 1 1
        5.0433500000        0.0000000000        0.0000000000 m 0 0 0
        7.5649745665        1.4559189511        2.0589934320 m 0 0 0
        5.2145261869        2.8150819968        4.0445691919 m 1 1 1
       -0.0171105181        8.8771663417        6.3937082626 m 1 1 1
        3.7825125000        2.1838347500        0.0000000000 m 0 0 0
        6.3041370665        3.6397537011        2.0589934320 m 0 0 0
        6.4602246057        0.7762815903        4.1434293203 m 1 1 1
        3.8573046875        2.2505074765        6.4154115433 m 1 1 1
        6.3041875000        2.1838347500        0.0000000000 m 0 0 0
        3.7824620665        3.6397537011        2.0589934320 m 0 0 0
        8.9110750311        0.7892841441        4.0957461499 m 1 1 1
        6.3084563331        2.2218325667        6.1665925595 m 1 1 1
        7.5650250000        0.0000000000        0.0000000000 m 0 0 0
        5.0432995665        1.4559189511        2.0589934320 m 0 0 0
        7.6148772342        2.9671224024        4.1183172044 m 1 1 1
        2.5216794167        8.6973620201        6.2614611665 m 1 1 1
        7.5650250000        4.3676695000        0.0000000000 m 0 0 0
       -0.0000504335        5.8235884511        2.0589934320 m 0 0 0
       -2.5669677222        7.3366026321        4.0869486080 m 1 1 1
       -2.3491201968        4.3293011990        6.2417484535 m 1 1 1
        6.3041875000        6.5515042500        0.0000000000 m 0 0 0
       -1.2608879335        8.0074232011        2.0589934320 m 0 0 0
       -1.3026359947        5.1445867048        4.1354942997 m 1 1 1
       -3.6365274967        6.5415107574        6.3695715632 m 1 1 1
       -1.2608375000        6.5515042500        0.0000000000 m 0 0 0
       -3.7825629335        8.0074232011        2.0589934320 m 0 0 0
        1.2815381215        5.1796883944        4.1316809475 m 1 1 1
       -1.3384985587        6.6706995500        6.1333158094 m 1 1 1
        0.0000000000        4.3676695000        0.0000000000 m 0 0 0
       -2.5217254335        5.8235884511        2.0589934320 m 0 0 0
       -0.0417474519        7.3668540927        4.1626159900 m 1 1 1
        0.0406824551        4.5219443649        6.0952824478 m 1 1 1
        2.5216750000        4.3676695000        0.0000000000 m 0 0 0
        5.0432995665        5.8235884511        2.0589934320 m 0 0 0
        2.5936690240        7.2605019348        4.1641313831 m 1 1 1
        2.5901454714        4.5528689311        6.2576097879 m 1 1 1
        1.2608375000        6.5515042500        0.0000000000 m 0 0 0
        3.7824620665        8.0074232011        2.0589934320 m 0 0 0
        3.8416302421        5.0567478200        4.0937807148 m 1 1 1
        1.1865876606        6.7679188632        6.1428265432 m 1 1 1
        3.7825125000        6.5515042500        0.0000000000 m 0 0 0
        1.2607870665        8.0074232011        2.0589934320 m 0 0 0
        6.3483470138        5.1050459369        4.2430403391 m 1 1 1
        3.9666715864        6.5853833217        6.2169115864 m 1 1 1
        5.0433500000        4.3676695000        0.0000000000 m 0 0 0
        2.5216245665        5.8235884511        2.0589934320 m 0 0 0
        5.0600843423        7.2788080377        4.2360665014 m 1 1 1
        5.1290717744        4.3601337203        6.3832629596 m 1 1 1

C #label
0.0000   #magnetism
1 #number of atoms
        2.5580748900        3.1799398933        7.7176588536 m 1 1 1

O #label
0.0000   #magnetism
28 #number of atoms
        2.4573860415        3.2671337420        8.9076498698 m 1 1 1
        1.3129688517        4.3629718422       14.4890723406 m 1 1 1
        4.7090831017        6.9400809600       17.1062637129 m 1 1 1
        4.7582212183        1.1578828915       13.3855707422 m 1 1 1
        1.0696417434        6.9231241547       14.9091179313 m 1 1 1
        2.4909032609        8.7525547934       16.2227915127 m 1 1 1
        0.6118006323        6.0162538536       10.6141458227 m 1 1 1
        4.8865464930        3.9333429007       15.8975976417 m 1 1 1
        1.9239628455        4.1453473704       11.9922854990 m 1 1 1
        0.4385030763        1.9119206999       11.4871129843 m 1 1 1
        0.8621770174        0.7849018806       15.0076746713 m 1 1 1
        2.4878821043        7.7258768893       12.6119594029 m 1 1 1
        6.6361736951        2.0856527128       15.0800887189 m 1 1 1
       -0.9765041709        7.3702190260       12.2371028475 m 1 1 1
       -3.7282934924        8.0397229314       11.1611507199 m 1 1 1
       -1.5655690972        5.0634381835        9.4969432766 m 1 1 1
        2.1356203814        7.3143770977        9.0655275369 m 1 1 1
        5.0651322684        7.7370768912       13.3492488556 m 1 1 1
        2.9928987086        2.3637348540       15.4316292194 m 1 1 1
       -1.9987407931        5.6964481812       14.1467810572 m 1 1 1
        4.4242535982        3.3573858080       11.7333626638 m 1 1 1
       -0.8610641986        2.3442938405        9.2989729590 m 1 1 1
       -1.1093174495        2.8431441749       14.0244037464 m 1 1 1
        5.6792571966        3.2103291721        9.2621517724 m 1 1 1
        6.1734815027        6.5318486122        9.1529779417 m 1 1 1
        7.2152410643        0.8002589466       10.3583366048 m 1 1 1
        3.8561063334        5.4309635204        9.4360145578 m 1 1 1
        5.4801938662        5.1470277590       13.7068644872 m 1 1 1

H #label
0.0000   #magnetism
55 #number of atoms
        0.3948993921        4.0332809407       14.4167587478 m 1 1 1
        1.5279327543        4.3421087356       13.5183138439 m 1 1 1
       -4.6799880857        7.5645893026       16.9354936917 m 1 1 1
        3.8152714333        7.3532154270       16.9176949222 m 1 1 1
        3.9956866846        1.6015405935       13.6915699870 m 1 1 1
        5.4187256871        1.5320908510       14.0170501498 m 1 1 1
        0.1757251048        7.2405770881       14.7573125369 m 1 1 1
        3.1795181909        8.6880938358       15.5000224149 m 1 1 1
        1.7817407067        8.0352655932       15.8699513171 m 1 1 1
        1.1028796960        5.2628687561       11.0009291264 m 1 1 1
       -0.2116868759        5.6971027744       10.1540722105 m 1 1 1
        5.1315578342        4.7497421702       14.6210796371 m 1 1 1
        4.7969964572        4.5833596275       16.6129123452 m 1 1 1
        4.1177599493        3.2889854983       15.7816201156 m 1 1 1
        1.5107122758        3.2693828584       11.9758096375 m 1 1 1
        2.9118150738        3.9798773476       11.8229514777 m 1 1 1
        0.9865256410        1.0814550039       11.3707357350 m 1 1 1
        0.1912422690        2.0773168092       10.5322788564 m 1 1 1
        0.3266236785        1.5792692496       15.0304776386 m 1 1 1
       -4.6116934912        8.8436137962       14.4515869566 m 1 1 1
        1.7853075982        7.5879684289       13.3006249975 m 1 1 1
        6.1721031673        2.8039336779       15.5900929309 m 1 1 1
        1.9820046983       10.1827130872       15.7828549646 m 1 1 1
       -0.5837572415        8.1492208368       12.5493940784 m 1 1 1
       -0.2484849462        6.8380241545       11.8359614314 m 1 1 1
       -2.8622297085        8.0196466735       11.5828724481 m 1 1 1
       -4.2754385151        7.8338815730       11.9230569665 m 1 1 1
       -1.4731175430        5.3187310614        8.5061837735 m 1 1 1
       -1.3957709765        4.0738597492        9.4850218194 m 1 1 1
        1.3793171663        6.9264968604        9.5942701603 m 1 1 1
        5.2016532933        6.7507169812       13.7569477754 m 1 1 1
        4.1327494949        7.7514378911       13.0664447164 m 1 1 1
        2.4082968354        3.0987358363       14.9950523742 m 1 1 1
        2.3497967352        1.5459248585       15.4247757048 m 1 1 1
       -1.7218966925        4.7573053439       14.1130326967 m 1 1 1
        4.8941054284        3.9661917812       12.3608986494 m 1 1 1
        4.7502532338        2.4948151725       12.1903638373 m 1 1 1
       -0.6106070195        2.1435125364        8.3451757266 m 1 1 1
        8.3890415745        1.8364125413        9.5657915541 m 1 1 1
        8.0899775328        2.5811170479       14.3858878670 m 1 1 1
       -0.8714629465        2.3635156058       13.1199961528 m 1 1 1
        5.1339371244        3.3726830926       10.0982249061 m 1 1 1
        5.1063295174        2.7237710488        8.6620145886 m 1 1 1
       -3.2939512751        5.7894012796        9.3137417647 m 1 1 1
       -3.7346795120        7.2085312620        9.8520829221 m 1 1 1
        6.6464626584        1.5547817563       10.1513454194 m 1 1 1
        2.1537428837        8.7350677767        9.6784564562 m 1 1 1
        3.2173318787        6.2523696514        9.3659505337 m 1 1 1
        3.6258770595        4.8370548572        8.6460052327 m 1 1 1
        2.1889751411        8.5450567774       12.1652088740 m 1 1 1
        1.9020287283        7.4211014867        8.1325733117 m 1 1 1
        6.4773097819        5.2401466260       13.8669056311 m 1 1 1
        1.1059302340        5.9482168835       14.7390169203 m 1 1 1
       -1.7624307259        6.2537189618       13.3798849120 m 1 1 1
        4.9098918439        5.9000105168        9.2271050526 m 1 1 1
