ATOMIC_SPECIES
Cu  63.5460 ../pporb/Cu_ONCV_PBE-1.0.upf auto
C  12.0110 ../pporb/C_ONCV_PBE-1.0.upf auto
O  15.9990 ../pporb/O_ONCV_PBE-1.0.upf auto
H   1.0080 ../pporb/H_ONCV_PBE-1.0.upf auto

NUMERICAL_ORBITAL
../pporb/Cu_gga_8au_100Ry_4s2p2d1f.orb
../pporb/C_gga_7au_100Ry_2s2p1d.orb
../pporb/O_gga_7au_100Ry_2s2p1d.orb
../pporb/H_gga_6au_100Ry_2s1p.orb

LATTICE_CONSTANT
1.8897261258

LATTICE_VECTORS
       10.0867000000        0.0000000000        0.0000000000
       -5.0433500000        8.7353390000        0.0000000000
        0.0000000000        0.0000000000       32.1768000000

ATOMIC_POSITIONS
Cartesian

Cu #label
0.0000   #magnetism
64 #number of atoms
        0.0000000000        0.0000000000        0.0000000000 m 0 0 0
        2.5216245665        1.4559189511        2.0589934320 m 0 0 0
       -0.0098917153        2.8865559069        4.1537001840 m 1 1 1
        0.0396393543       -0.0078507664        5.9764887357 m 1 1 1
       -1.2608375000        2.1838347500        0.0000000000 m 0 0 0
        1.2607870665        3.6397537011        2.0589934320 m 0 0 0
        1.1907600832        0.7964224240        4.0561497414 m 1 1 1
       -1.2556081550        2.0996356048        6.1941246852 m 1 1 1
        1.2608375000        2.1838347500        0.0000000000 m 0 0 0
       -1.2608879335        3.6397537011        2.0589934320 m 0 0 0
        3.7844640325        0.7945699987        4.0212122288 m 1 1 1
        1.2065195939        2.1387469143        6.2266467822 m 1 1 1
        2.5216750000        0.0000000000        0.0000000000 m 0 0 0
       -0.0000504335        1.4559189511        2.0589934320 m 0 0 0
        2.5364953923        2.9827013302        4.1226083250 m 1 1 1
        2.3996095121        0.0239679645        6.1208901413 m 1 1 1
        5.0433500000        0.0000000000        0.0000000000 m 0 0 0
        7.5649745665        1.4559189511        2.0589934320 m 0 0 0
        5.0682204872        2.9000126531        4.1518513182 m 1 1 1
       -0.0446978283        8.7972706051        6.2598079998 m 1 1 1
        3.7825125000        2.1838347500        0.0000000000 m 0 0 0
        6.3041370665        3.6397537011        2.0589934320 m 0 0 0
        6.2849634801        0.7639162553        4.2249272514 m 1 1 1
        3.6302616296        2.2739630783        6.3587340735 m 1 1 1
        6.3041875000        2.1838347500        0.0000000000 m 0 0 0
        3.7824620665        3.6397537011        2.0589934320 m 0 0 0
        8.7636637108        0.7763321010        4.0519277261 m 1 1 1
        6.2420757136        2.2112679498        6.2181920061 m 1 1 1
        7.5650250000        0.0000000000        0.0000000000 m 0 0 0
        5.0432995665        1.4559189511        2.0589934320 m 0 0 0
        7.5793444015        2.9357895701        4.1137680864 m 1 1 1
        2.5184407197        8.7686758401        6.3301367418 m 1 1 1
        7.5650250000        4.3676695000        0.0000000000 m 0 0 0
       -0.0000504335        5.8235884511        2.0589934320 m 0 0 0
       -2.5125599827        7.2863182594        4.0394698355 m 1 1 1
       -2.5603713317        4.3417943034        6.1946987432 m 1 1 1
        6.3041875000        6.5515042500        0.0000000000 m 0 0 0
       -1.2608879335        8.0074232011        2.0589934320 m 0 0 0
       -1.2133056427        5.1418417497        4.1001159169 m 1 1 1
       -3.9689479521        6.5306426824        6.1581665797 m 1 1 1
       -1.2608375000        6.5515042500        0.0000000000 m 0 0 0
       -3.7825629335        8.0074232011        2.0589934320 m 0 0 0
        1.2711129674        5.0324600726        4.0079614911 m 1 1 1
       -1.2599959807        6.4687147168        6.2566397111 m 1 1 1
        0.0000000000        4.3676695000        0.0000000000 m 0 0 0
       -2.5217254335        5.8235884511        2.0589934320 m 0 0 0
        0.0434729355        7.2468615137        4.1941184515 m 1 1 1
       -0.0578509578        4.3819464785        6.2991608359 m 1 1 1
        2.5216750000        4.3676695000        0.0000000000 m 0 0 0
        5.0432995665        5.8235884511        2.0589934320 m 0 0 0
        2.5075409114        7.3339080175        4.1072760420 m 1 1 1
        2.3310639020        4.4075830172        6.1514336589 m 1 1 1
        1.2608375000        6.5515042500        0.0000000000 m 0 0 0
        3.7824620665        8.0074232011        2.0589934320 m 0 0 0
        3.8708588128        4.9613999184        4.1428341902 m 1 1 1
        1.2581946072        6.7147423922        6.2229489107 m 1 1 1
        3.7825125000        6.5515042500        0.0000000000 m 0 0 0
        1.2607870665        8.0074232011        2.0589934320 m 0 0 0
        6.3488014289        5.0241524654        4.1173747919 m 1 1 1
        3.6663201733        6.5499566770        6.1688611264 m 1 1 1
        5.0433500000        4.3676695000        0.0000000000 m 0 0 0
        2.5216245665        5.8235884511        2.0589934320 m 0 0 0
        5.0173369175        7.2419820468        4.0692586849 m 1 1 1
        4.9950761041        4.3243867133        6.2310639465 m 1 1 1

C #label
0.0000   #magnetism
1 #number of atoms
        2.8635826709        1.2237156390        7.7956215071 m 1 1 1

O #label
0.0000   #magnetism
28 #number of atoms
        2.7200280339        0.9859099235        8.9864257001 m 1 1 1
        2.7303495366        2.6996343226       14.3038553264 m 1 1 1
        7.8168081299        3.6725766581       16.4536577513 m 1 1 1
        5.6052629285       -0.9034072196       13.5557705185 m 1 1 1
        4.2882863799        5.0873021333       14.5089666803 m 1 1 1
        6.5925226164        5.8816867207       15.6623668115 m 1 1 1
        1.0139979613        4.1781684183       10.8657036369 m 1 1 1
        6.2689796215        2.0456752561       14.2167467815 m 1 1 1
        2.2825058984        1.8722836638       11.7406980485 m 1 1 1
        1.1373745419       -0.5784987184       12.3555995800 m 1 1 1
        1.8099566532       -0.5052837920       16.5427499443 m 1 1 1
        3.6316572114       10.6023367294       12.7226982080 m 1 1 1
        8.2352701272       -1.2380055623       13.7789638505 m 1 1 1
        0.2232997437        5.2375797543       13.0855707390 m 1 1 1
       -2.6216828514        5.7308566007       12.9283146266 m 1 1 1
       -1.3240372424        3.2234760310       10.0289136449 m 1 1 1
        2.4477713701        5.4697420562        9.0752271483 m 1 1 1
        3.7123973765        7.5477595558       10.9975215081 m 1 1 1
        3.9785879600        0.4783522536       15.0676156225 m 1 1 1
       -0.1188431563        3.3353838044       14.8102970400 m 1 1 1
        4.7784284433        0.5482986802       11.2895059031 m 1 1 1
        1.0757702116       -1.2652692757        9.1322255880 m 1 1 1
        0.2854761303        0.6628827653       14.7908848514 m 1 1 1
        5.4151172436       -1.3080994624        9.2518710370 m 1 1 1
        6.5570302907        4.8387580418        9.3107436165 m 1 1 1
        7.9653595938        0.7324388678        9.4627741719 m 1 1 1
        4.2363194107        3.5809215012        9.2379878917 m 1 1 1
        5.3525017545        3.6969996342       12.5197302838 m 1 1 1

H #label
0.0000   #magnetism
55 #number of atoms
        1.7828718316        2.9161295648       14.5346662391 m 1 1 1
        2.7085373927        2.6037540586       13.3020698815 m 1 1 1
       -2.3219064029        3.4186144987       17.4040065851 m 1 1 1
        7.4213880069        4.6613650067       16.3608650039 m 1 1 1
        6.5027403003       -0.9716781668       13.9074376502 m 1 1 1
        4.9500475491       -0.4390481781       14.1609657438 m 1 1 1
        3.6569410953        4.3837253750       14.9013204467 m 1 1 1
        6.6178750310        6.7199374989       16.2506825916 m 1 1 1
        5.6395979618        5.6213336455       15.4958466463 m 1 1 1
        1.4156445717        3.2273837800       11.0244039259 m 1 1 1
        0.2315766248        4.0898866616       10.2748029738 m 1 1 1
        5.5966482965        2.9984970613       13.1497678132 m 1 1 1
        6.6196997893        2.5013889661       15.0103178974 m 1 1 1
        5.4977158098        1.5165529039       14.5348119147 m 1 1 1
        1.7897247173        0.9654646406       11.8255264383 m 1 1 1
        3.1484285959        1.6441964436       11.3248298900 m 1 1 1
        1.7581425122       -1.3580417616       12.4482035797 m 1 1 1
        0.3280131402       -0.9717664553       11.9266816979 m 1 1 1
        1.1006953977        0.0797005497       15.9273927058 m 1 1 1
       -3.1160821731        8.5774870983       17.4537858639 m 1 1 1
        4.1164468295       11.0703556111       13.5031165555 m 1 1 1
        8.8091707825       -0.5343297600       14.1044139945 m 1 1 1
        3.6427539643        6.6517526380       14.0736750919 m 1 1 1
        0.4980928539        6.1693182340       13.3341037676 m 1 1 1
        0.5599312192        4.9956019376       12.2128040816 m 1 1 1
       -1.6651623220        5.4665056319       12.9747456853 m 1 1 1
       -2.8816430794        5.9479150445       13.8405738601 m 1 1 1
       -1.5382541027        2.9233707284       10.9508445576 m 1 1 1
       -1.6232860331        2.3284135648        9.6062256820 m 1 1 1
        1.7866936012        4.9499319231        9.6106254617 m 1 1 1
        3.4554640848        6.5987227998       10.8633748080 m 1 1 1
        3.4380306346        7.6630396389       12.0218726079 m 1 1 1
        3.3816979085        1.2601865528       14.8349647979 m 1 1 1
        3.4045664218        0.0213730550       15.7358404688 m 1 1 1
        0.0348051390        4.1095823997       14.2196062470 m 1 1 1
        5.5085989078        1.1793061354       11.3235902045 m 1 1 1
        4.8887601950       -0.0696243271       12.0456011960 m 1 1 1
        1.5152871646       -0.4016683039        9.1755109236 m 1 1 1
       10.2420300586       -1.1001599276        9.3883869428 m 1 1 1
       10.1130109625        1.5712055523       14.6830511527 m 1 1 1
        0.6701906382        0.5013364838       13.9081375055 m 1 1 1
        5.1967642184       -0.6098593859        9.9118584597 m 1 1 1
        4.8173121153       -1.2177819973        8.4463826601 m 1 1 1
       -2.6787097549        4.4056396736        9.6657218840 m 1 1 1
       -3.3014214571        5.7781820358        9.1137153087 m 1 1 1
        7.0260801397        0.6480123874        9.1981927739 m 1 1 1
        3.1417737008        8.7943213096       10.1979054562 m 1 1 1
        3.5835361901        4.3531437595        9.0953778195 m 1 1 1
        4.2302099148        3.0485026309        8.4092150913 m 1 1 1
        2.7578091096       10.4573473284       13.0852156827 m 1 1 1
        1.8470290379        6.2085396962        8.8380097046 m 1 1 1
        6.1488636611        4.2473503941       12.4496335244 m 1 1 1
        4.7032912450        4.6255493921       13.7070437310 m 1 1 1
       -0.7240499523        3.6218628006       15.5432584515 m 1 1 1
        5.2152767557        3.9175322072        9.2417491765 m 1 1 1
