ATOMIC_SPECIES
Cu  63.5460 ../pporb/Cu_ONCV_PBE-1.0.upf auto
C  12.0110 ../pporb/C_ONCV_PBE-1.0.upf auto
O  15.9990 ../pporb/O_ONCV_PBE-1.0.upf auto
H   1.0080 ../pporb/H_ONCV_PBE-1.0.upf auto

NUMERICAL_ORBITAL
../pporb/Cu_gga_8au_100Ry_4s2p2d1f.orb
../pporb/C_gga_7au_100Ry_2s2p1d.orb
../pporb/O_gga_7au_100Ry_2s2p1d.orb
../pporb/H_gga_6au_100Ry_2s1p.orb

LATTICE_CONSTANT
1.8897261258

LATTICE_VECTORS
       10.0867000000        0.0000000000        0.0000000000
       -5.0433500000        8.7353390000        0.0000000000
        0.0000000000        0.0000000000       32.1768000000

ATOMIC_POSITIONS
Cartesian

Cu #label
0.0000   #magnetism
64 #number of atoms
        0.0000000000        0.0000000000        0.0000000000 m 0 0 0
        2.5216245665        1.4559189511        2.0589934320 m 0 0 0
       -0.0587911381        2.8272394434        4.0041582936 m 1 1 1
        0.0292921611       -0.0275656088        6.2454533542 m 1 1 1
       -1.2608375000        2.1838347500        0.0000000000 m 0 0 0
        1.2607870665        3.6397537011        2.0589934320 m 0 0 0
        1.2859062513        0.4916914264        4.1058912528 m 1 1 1
       -1.2779400778        2.1222816129        6.1537874841 m 1 1 1
        1.2608375000        2.1838347500        0.0000000000 m 0 0 0
       -1.2608879335        3.6397537011        2.0589934320 m 0 0 0
        3.8188393530        0.6765567096        4.1014138630 m 1 1 1
        1.2495727168        2.0858958309        6.1917734765 m 1 1 1
        2.5216750000        0.0000000000        0.0000000000 m 0 0 0
       -0.0000504335        1.4559189511        2.0589934320 m 0 0 0
        2.4857848999        2.8092539355        4.0797842256 m 1 1 1
        2.5222444271       -0.0829778915        6.3447029330 m 1 1 1
        5.0433500000        0.0000000000        0.0000000000 m 0 0 0
        7.5649745665        1.4559189511        2.0589934320 m 0 0 0
        5.0006804308        2.8992906717        4.2124633801 m 1 1 1
       -0.0251113254        8.5921004890        6.2358702040 m 1 1 1
        3.7825125000        2.1838347500        0.0000000000 m 0 0 0
        6.3041370665        3.6397537011        2.0589934320 m 0 0 0
        6.3315396165        0.8550293458        4.1732519042 m 1 1 1
        3.8424034135        2.0660490751        6.3488810979 m 1 1 1
        6.3041875000        2.1838347500        0.0000000000 m 0 0 0
        3.7824620665        3.6397537011        2.0589934320 m 0 0 0
        8.9522247523        0.6992353757        4.0221903439 m 1 1 1
        6.2931905477        2.1257441924        6.2708767473 m 1 1 1
        7.5650250000        0.0000000000        0.0000000000 m 0 0 0
        5.0432995665        1.4559189511        2.0589934320 m 0 0 0
        7.5659242209        2.8754949498        4.0972816206 m 1 1 1
        2.5560669943        8.7014928059        6.1362703309 m 1 1 1
        7.5650250000        4.3676695000        0.0000000000 m 0 0 0
       -0.0000504335        5.8235884511        2.0589934320 m 0 0 0
       -2.3881914797        7.2696841753        4.1935686105 m 1 1 1
       -2.6240283242        4.3177423321        6.2029741542 m 1 1 1
        6.3041875000        6.5515042500        0.0000000000 m 0 0 0
       -1.2608879335        8.0074232011        2.0589934320 m 0 0 0
       -1.2713987707        5.0510644443        4.3015600059 m 1 1 1
       -3.7913057449        6.5340069267        6.4639027019 m 1 1 1
       -1.2608375000        6.5515042500        0.0000000000 m 0 0 0
       -3.7825629335        8.0074232011        2.0589934320 m 0 0 0
        1.2004805823        4.9714177730        4.1711169018 m 1 1 1
       -1.2953613269        6.4491573352        6.1928297406 m 1 1 1
        0.0000000000        4.3676695000        0.0000000000 m 0 0 0
       -2.5217254335        5.8235884511        2.0589934320 m 0 0 0
        0.0793210322        7.2533900788        4.1677479997 m 1 1 1
       -0.1019964182        4.3023148806        6.3293091528 m 1 1 1
        2.5216750000        4.3676695000        0.0000000000 m 0 0 0
        5.0432995665        5.8235884511        2.0589934320 m 0 0 0
        2.5314853910        7.2135857175        4.1336325107 m 1 1 1
        2.4626822194        4.2475279161        6.3429280674 m 1 1 1
        1.2608375000        6.5515042500        0.0000000000 m 0 0 0
        3.7824620665        8.0074232011        2.0589934320 m 0 0 0
        3.6658656070        4.9881102088        4.1475336495 m 1 1 1
        1.2082268487        6.4587271737        6.3052500049 m 1 1 1
        3.7825125000        6.5515042500        0.0000000000 m 0 0 0
        1.2607870665        8.0074232011        2.0589934320 m 0 0 0
        6.3777870195        5.1616650028        4.0257951400 m 1 1 1
        3.7304080413        6.5458444954        6.1841699224 m 1 1 1
        5.0433500000        4.3676695000        0.0000000000 m 0 0 0
        2.5216245665        5.8235884511        2.0589934320 m 0 0 0
        5.0198413901        7.2262814405        4.0602632825 m 1 1 1
        4.9556825146        4.3981835536        6.1776721923 m 1 1 1

C #label
0.0000   #magnetism
1 #number of atoms
        2.5225074135        2.8764176492        7.7446043999 m 1 1 1

O #label
0.0000   #magnetism
28 #number of atoms
        2.3172456689        2.7972252226        8.9118272930 m 1 1 1
        2.1264694142        4.2494302856       15.0078283018 m 1 1 1
        7.6401908028        4.1860056564       16.7260613800 m 1 1 1
        4.2163655309       -0.5168935265       13.5325438552 m 1 1 1
        3.9524718397        6.1975965160       15.9965510626 m 1 1 1
        6.2713998634        6.9068357516       16.7958806571 m 1 1 1
        0.7484787749        4.9175890062       11.1632107747 m 1 1 1
        6.2453599240        2.2194522741       16.0016704365 m 1 1 1
        2.1103731470        2.9515389289       12.4176834375 m 1 1 1
        0.7345341558        0.5411997967       11.5764512812 m 1 1 1
        2.1675791905        0.0590663627       15.1646036428 m 1 1 1
        2.6432613929        7.0948826032       12.6182802215 m 1 1 1
        7.2047812501       -0.0287839658       15.1238535044 m 1 1 1
       -1.2919360891        5.5440560732       13.0490460926 m 1 1 1
       -3.3917381029        6.8202236351       11.6320773355 m 1 1 1
       -0.9553706071        3.5674389642        9.3770276951 m 1 1 1
        2.5234351284        6.1157970110        9.4423832749 m 1 1 1
        4.9030787048        5.8918039627       13.5045317701 m 1 1 1
        3.6955120578        2.6660283260       16.5021735499 m 1 1 1
       -0.6538618484        3.5892058788       14.8043107175 m 1 1 1
        4.7429351868        1.8117691707       11.7674620002 m 1 1 1
       -0.1021044904        0.8919808737        9.1724027627 m 1 1 1
       -0.3331841576        1.2166163998       13.9724210492 m 1 1 1
        5.6711559494        1.7484033302        9.3354234247 m 1 1 1
        6.7265507240        5.1732086397        9.4936824101 m 1 1 1
        7.5360811231       -0.1382203620       10.2495273066 m 1 1 1
        4.3642584544        4.4662351793        9.8109639016 m 1 1 1
        6.0547490415        3.2252158178       13.5969352066 m 1 1 1

H #label
0.0000   #magnetism
55 #number of atoms
        1.1705043166        4.2327539522       15.1655739564 m 1 1 1
        2.1740081982        3.9057741789       14.1051463181 m 1 1 1
       -1.7559175119        4.0633406469       16.0816032453 m 1 1 1
        7.0343248652        4.9151878756       16.5040907333 m 1 1 1
        3.3831369369       -0.3196709324       14.1075607884 m 1 1 1
        4.9797710658       -0.4239411809       14.1700891915 m 1 1 1
        3.1843444396        5.5699448440       15.9094308591 m 1 1 1
        5.3575859051        6.5498937737       16.7236330614 m 1 1 1
        6.4152637424        7.0150506790       17.7370150282 m 1 1 1
        1.3754779687        4.2337653858       11.5729416096 m 1 1 1
        0.2630551061        4.3960291977       10.4819491903 m 1 1 1
        6.2087984608        2.6937367634       14.5084519632 m 1 1 1
        6.9261776408        2.9977648425       16.3213773982 m 1 1 1
        5.3075342911        2.4470373681       16.3956924023 m 1 1 1
        1.6071357201        2.0780651725       12.2521182515 m 1 1 1
        3.0645872621        2.6940065896       12.2134946232 m 1 1 1
        1.2444571290       -0.2899124270       11.6559124784 m 1 1 1
        0.6964175023        0.7572020729       10.5315366725 m 1 1 1
        1.4137200585        0.5995332345       14.7680501339 m 1 1 1
       -3.2076031938        8.1234810927       15.8398564874 m 1 1 1
        2.3840894970        7.6544055530       13.3591240316 m 1 1 1
        6.9588481327        0.7112513003       15.7372893672 m 1 1 1
        2.6026335265        7.9545443574       15.6132633309 m 1 1 1
       -1.1098144965        6.4595443245       13.4171033865 m 1 1 1
       -0.5486503355        5.3225933043       12.4207493008 m 1 1 1
       -2.5547973349        6.6967015851       11.9848100086 m 1 1 1
       -4.0309541818        6.4632700441       12.2810903054 m 1 1 1
       -0.6319331695        2.6485622644        9.3164175268 m 1 1 1
       -1.0496382765        3.8753223906        8.4593648128 m 1 1 1
        1.6930134449        5.7281745461        9.8629405527 m 1 1 1
        5.0444033649        4.9438146248       13.3721482120 m 1 1 1
        4.0093687110        6.1581192125       13.0752858439 m 1 1 1
        3.1598779065        3.3335108660       16.0430131857 m 1 1 1
        3.2463365260        1.8308329161       16.2262132899 m 1 1 1
       -0.4604176443        2.7368370875       14.4098608945 m 1 1 1
        5.1857055056        2.4104763886       12.4138536480 m 1 1 1
        4.5707460191        0.9911341513       12.2781294230 m 1 1 1
        0.1984186844        0.4414149122        8.3109269080 m 1 1 1
        9.0633007906        0.5904719879        9.3304401496 m 1 1 1
        8.9427718374        0.7141462456       14.1810664075 m 1 1 1
        0.0271501880        0.8965775839       13.0533837144 m 1 1 1
        5.1423487631        1.7091190730       10.1364339329 m 1 1 1
        5.2338195802        1.3108181411        8.5660669317 m 1 1 1
       -2.8122158195        4.3513582913        9.4329586438 m 1 1 1
       -2.9750950033        5.6505253505       10.2914637901 m 1 1 1
        6.7935024813        0.4261742811       10.0497322335 m 1 1 1
        2.3714847162        7.7235971883        9.8414165504 m 1 1 1
        3.7587160779        5.3603821462        9.8250449602 m 1 1 1
        4.2329935296        4.0275843707        8.9231055493 m 1 1 1
        2.6210655368        7.6181689749       11.7685674370 m 1 1 1
        2.5092478190        5.9899593764        8.4371762187 m 1 1 1
        6.9360246015        3.4969642322       13.3247431168 m 1 1 1
        4.4472128675        6.1284229823       15.0941709635 m 1 1 1
       -0.9176417587        4.3051628051       14.1650117097 m 1 1 1
        5.3872423879        4.8018453136        9.8611446413 m 1 1 1
