ATOMIC_SPECIES
Cu  63.5460 ../pporb/Cu_ONCV_PBE-1.0.upf auto
C  12.0110 ../pporb/C_ONCV_PBE-1.0.upf auto
O  15.9990 ../pporb/O_ONCV_PBE-1.0.upf auto
H   1.0080 ../pporb/H_ONCV_PBE-1.0.upf auto

NUMERICAL_ORBITAL
../pporb/Cu_gga_8au_100Ry_4s2p2d1f.orb
../pporb/C_gga_7au_100Ry_2s2p1d.orb
../pporb/O_gga_7au_100Ry_2s2p1d.orb
../pporb/H_gga_6au_100Ry_2s1p.orb

LATTICE_CONSTANT
1.8897261258

LATTICE_VECTORS
       10.0867000000        0.0000000000        0.0000000000
       -5.0433500000        8.7353390000        0.0000000000
        0.0000000000        0.0000000000       32.1768000000

ATOMIC_POSITIONS
Cartesian

Cu #label
0.0000   #magnetism
64 #number of atoms
        0.0000000000        0.0000000000        0.0000000000 m 0 0 0
        2.5216245665        1.4559189511        2.0589934320 m 0 0 0
       -0.0366231562        2.9711458995        4.0013069773 m 1 1 1
       -0.1147254043       -0.0400857598        6.5486639592 m 1 1 1
       -1.2608375000        2.1838347500        0.0000000000 m 0 0 0
        1.2607870665        3.6397537011        2.0589934320 m 0 0 0
        1.2568010644        0.6742970629        4.1059761286 m 1 1 1
       -1.3313379185        2.2033977733        6.1064852012 m 1 1 1
        1.2608375000        2.1838347500        0.0000000000 m 0 0 0
       -1.2608879335        3.6397537011        2.0589934320 m 0 0 0
        3.7836366085        0.6006190901        4.1756432648 m 1 1 1
        1.1186293352        2.1678925249        6.1869355359 m 1 1 1
        2.5216750000        0.0000000000        0.0000000000 m 0 0 0
       -0.0000504335        1.4559189511        2.0589934320 m 0 0 0
        2.4302987812        2.8081763928        4.1756260010 m 1 1 1
        2.4390116047       -0.0799067901        6.3336487201 m 1 1 1
        5.0433500000        0.0000000000        0.0000000000 m 0 0 0
        7.5649745665        1.4559189511        2.0589934320 m 0 0 0
        4.9279134713        3.0166914610        4.0515634295 m 1 1 1
        5.0124876351       -0.1212818815        6.3256673921 m 1 1 1
        3.7825125000        2.1838347500        0.0000000000 m 0 0 0
        6.3041370665        3.6397537011        2.0589934320 m 0 0 0
        6.1817987671        0.4928137083        4.0897757296 m 1 1 1
        3.7216659988        2.0449615182        6.2288469525 m 1 1 1
        6.3041875000        2.1838347500        0.0000000000 m 0 0 0
        3.7824620665        3.6397537011        2.0589934320 m 0 0 0
        8.8634333218        0.7124131101        4.1027120056 m 1 1 1
        6.1219485106        2.2557476442        6.4053983243 m 1 1 1
        7.5650250000        0.0000000000        0.0000000000 m 0 0 0
        5.0432995665        1.4559189511        2.0589934320 m 0 0 0
        7.4524068362        2.7154684335        4.1687016363 m 1 1 1
        2.4882149763        8.8509491176        6.3289729104 m 1 1 1
        7.5650250000        4.3676695000        0.0000000000 m 0 0 0
       -0.0000504335        5.8235884511        2.0589934320 m 0 0 0
       -2.6281138069        7.2985000274        4.1387591376 m 1 1 1
       -2.7052125741        4.2949575133        6.1343804282 m 1 1 1
        6.3041875000        6.5515042500        0.0000000000 m 0 0 0
       -1.2608879335        8.0074232011        2.0589934320 m 0 0 0
       -1.4918298278        5.1289073322        4.0989296493 m 1 1 1
       -3.9897048127        6.5497173212        6.0475692725 m 1 1 1
       -1.2608375000        6.5515042500        0.0000000000 m 0 0 0
       -3.7825629335        8.0074232011        2.0589934320 m 0 0 0
        1.2194866952        5.1167473898        4.0293661357 m 1 1 1
       -1.3923548064        6.4606032506        6.2998261920 m 1 1 1
        0.0000000000        4.3676695000        0.0000000000 m 0 0 0
       -2.5217254335        5.8235884511        2.0589934320 m 0 0 0
       -0.0512012052        7.2015777249        4.2148270093 m 1 1 1
       -0.1671225234        4.3596467849        6.0820975491 m 1 1 1
        2.5216750000        4.3676695000        0.0000000000 m 0 0 0
        5.0432995665        5.8235884511        2.0589934320 m 0 0 0
        2.4003544882        7.2181708086        4.1162550641 m 1 1 1
        2.4497315871        4.3586038223        6.1116130959 m 1 1 1
        1.2608375000        6.5515042500        0.0000000000 m 0 0 0
        3.7824620665        8.0074232011        2.0589934320 m 0 0 0
        3.7889945202        5.2084832945        4.2226937403 m 1 1 1
        1.1491375796        6.5239089550        6.2252717444 m 1 1 1
        3.7825125000        6.5515042500        0.0000000000 m 0 0 0
        1.2607870665        8.0074232011        2.0589934320 m 0 0 0
        6.2777784187        5.1086143748        4.1542023972 m 1 1 1
        3.6511729111        6.5820228677        6.1991364476 m 1 1 1
        5.0433500000        4.3676695000        0.0000000000 m 0 0 0
        2.5216245665        5.8235884511        2.0589934320 m 0 0 0
        4.9730634627        7.3471372241        4.1065806305 m 1 1 1
        4.8487862518        4.4102563597        6.2983099940 m 1 1 1

C #label
0.0000   #magnetism
1 #number of atoms
        5.1928082451        3.3536963127        7.7972316121 m 1 1 1

O #label
0.0000   #magnetism
28 #number of atoms
        5.2796154495        2.8283245329        8.8481080408 m 1 1 1
        2.0308302775        4.4697297911       13.3260894278 m 1 1 1
        4.0592749506        1.2605310378       19.0168792710 m 1 1 1
       -0.6068976249        7.9095989246       13.4819102096 m 1 1 1
       -3.2947802460        7.2374591941       16.9849816919 m 1 1 1
       -1.3581229745        7.3009497995       18.8335701775 m 1 1 1
        0.5016256406        5.8983696040        9.7913603678 m 1 1 1
        4.0239983645        1.7566064763       16.3409308701 m 1 1 1
        2.4840400595        4.1747819558       10.7166713751 m 1 1 1
        2.1827725878        1.5756645763        9.7090599662 m 1 1 1
       -2.7018551889        8.8871292737       14.9778355231 m 1 1 1
        3.5455886416        6.7336903362       13.7871946770 m 1 1 1
        1.9154419494        8.9442780480       14.2171933947 m 1 1 1
       -0.9419346054        5.7511290338       12.0143054770 m 1 1 1
        5.8981389083        7.1787191440       12.4724372066 m 1 1 1
       -1.2816891262        3.9618637485        9.2033909611 m 1 1 1
        3.4929447186        7.7119655947        9.3761372399 m 1 1 1
        4.2524077128        7.4729323033       16.1724895527 m 1 1 1
        4.6342083628        3.7218584645       14.4984177161 m 1 1 1
       -0.4971850943        4.0741960953       14.0575580688 m 1 1 1
        5.7650201154        3.1315403669       12.1648445721 m 1 1 1
       -0.4562999642        1.5147066643       10.1957991680 m 1 1 1
        8.3364652282        1.8524431548       12.5708800611 m 1 1 1
        4.2993567010        1.1194135737       11.3520659127 m 1 1 1
        6.6549108573        5.0494660639       10.7023896774 m 1 1 1
        0.8198220116        8.4249003576        9.7249106133 m 1 1 1
        4.4806291528        5.3354421400        9.4463357168 m 1 1 1
       -2.9967829701        5.4293987323       14.9087273044 m 1 1 1

H #label
0.0000   #magnetism
55 #number of atoms
        1.2622861402        4.0813212089       13.7924069169 m 1 1 1
        2.0657247183        4.2944752536       12.3414418509 m 1 1 1
       -1.0512596627        9.0179078648       18.9408175077 m 1 1 1
        3.2635313783        1.5561047565       19.4724711184 m 1 1 1
       -1.3636996642        8.1545626360       14.0930528396 m 1 1 1
        0.3092691047        8.1468008550       13.8014214227 m 1 1 1
       -4.3222756395        7.2497008105       16.8812057286 m 1 1 1
       -1.6207762526        7.1534556195       19.7641529456 m 1 1 1
       -2.1932694130        7.2076442423       18.2443351900 m 1 1 1
        1.3424911326        5.2905253680       10.0034647972 m 1 1 1
       -0.1470663755        5.2236715961        9.3336216309 m 1 1 1
        6.4600678654        4.7023603049       14.7465806160 m 1 1 1
        4.0443344762        1.6277483445       17.2849383030 m 1 1 1
        4.8908392934        1.3815512449       16.0649823004 m 1 1 1
        2.3316324965        3.2707602138       10.2750172590 m 1 1 1
        3.1864803711        4.6247352310       10.2122663048 m 1 1 1
        3.0070489669        1.3352909197       10.3158335215 m 1 1 1
        2.2843324549        1.4069917535        8.7550818268 m 1 1 1
       -3.0252210224        8.2809475153       15.7416585151 m 1 1 1
        2.8245979680        0.8923344539       15.4692433860 m 1 1 1
        2.8481134801        5.9382268663       13.6384152683 m 1 1 1
        2.4914691990        8.1417114912       14.1476484670 m 1 1 1
        7.2916711202        0.9175733155       13.5828057462 m 1 1 1
       -0.8570360143        6.4483565709       12.6612177501 m 1 1 1
       -0.2645979126        5.8472375846       11.3102427686 m 1 1 1
       -4.0555189923        8.0612248324       12.7773078478 m 1 1 1
        6.1356734081        6.6733831045       13.3360958244 m 1 1 1
       -1.6366713313        3.7727563868        8.3491298074 m 1 1 1
       -1.9777565079        4.4865729489        9.7290344987 m 1 1 1
        2.5859372622        7.9689697584        9.4878254098 m 1 1 1
        3.9874236500        8.3856483743       15.9744725859 m 1 1 1
        4.1234185103        7.0654610790       15.3040885173 m 1 1 1
        3.7021650911        3.9803159693       14.3626657884 m 1 1 1
        4.5723301121        3.0867307334       15.2150605653 m 1 1 1
       -0.8610818636        3.2018900329       13.7636102523 m 1 1 1
        5.4047492757        3.3294803434       13.0814463324 m 1 1 1
        5.0659781065        2.5484078991       11.7464851191 m 1 1 1
        0.5465841257        1.4494960330       10.3201729964 m 1 1 1
       -0.5103398211        2.2931163074        9.6079581886 m 1 1 1
        7.5187501678        2.3552431780       12.3551568027 m 1 1 1
        8.7717262274        1.6970399382       11.6475986481 m 1 1 1
        4.0720013706        0.4883073331       12.0869587686 m 1 1 1
        4.9211620159        0.5742518411       10.8009743781 m 1 1 1
        6.2405312134        4.3208653326       11.2877773247 m 1 1 1
       -2.9315144789        5.7374473628       11.2724107034 m 1 1 1
        0.5272308896        8.5140352599        8.8102079346 m 1 1 1
        0.4306248944        7.4935400316        9.8693735641 m 1 1 1
        4.1648428538        6.2410787384        9.2189307384 m 1 1 1
        4.5066006662        4.7563505219        8.5255960921 m 1 1 1
        4.0623282591        6.7756617517       12.9894383931 m 1 1 1
        9.1023749860       -0.2478545142        9.5832258668 m 1 1 1
       -2.1088483659        5.0070856784       14.8961171122 m 1 1 1
       -2.9943479659        6.5490279771       16.2660420693 m 1 1 1
       -0.8198268797        4.7228404571       13.2431748001 m 1 1 1
        5.5029988122        5.2455956265        9.8938593079 m 1 1 1
