ATOMIC_SPECIES
Cu  63.546        Cu_ONCV_PBE-1.0.upf
C   12.011        C_ONCV_PBE-1.0.upf
O   15.999        O_ONCV_PBE-1.0.upf

NUMERICAL_ORBITAL
Cu_gga_8au_100Ry_4s2p2d1f.orb
C_gga_7au_100Ry_2s2p1d.orb
O_gga_7au_100Ry_2s2p1d.orb

LATTICE_CONSTANT
1.8897261258369282 

LATTICE_VECTORS
10.086700000      0.0000000000      0.0000000000      
-5.043350000      8.7353390000      0.0000000000      
0.0000000000      0.0000000000      32.176800000      

ATOMIC_POSITIONS
Direct

Cu
0.0000000000
64
0.0000000000 0.0000000000 0.0000000000 0 0 0 mag 0.0 
0.3333300000 0.1666700000 0.0639900000 0 0 0 mag 0.0 
0.1666700000 0.3333300000 0.1279800000 1 1 1 mag 0.0 
0.0000000000 0.0000000000 0.1919600000 1 1 1 mag 0.0 
0.0000000000 0.2500000000 0.0000000000 0 0 0 mag 0.0 
0.3333300000 0.4166700000 0.0639900000 0 0 0 mag 0.0 
0.1666700000 0.0833300000 0.1279800000 1 1 1 mag 0.0 
0.0000000000 0.2500000000 0.1919600000 1 1 1 mag 0.0 
0.2500000000 0.2500000000 0.0000000000 0 0 0 mag 0.0 
0.0833300000 0.4166700000 0.0639900000 0 0 0 mag 0.0 
0.4166700000 0.0833300000 0.1279800000 1 1 1 mag 0.0 
0.2500000000 0.2500000000 0.1919600000 1 1 1 mag 0.0 
0.2500000000 0.0000000000 0.0000000000 0 0 0 mag 0.0 
0.0833300000 0.1666700000 0.0639900000 0 0 0 mag 0.0 
0.4166700000 0.3333300000 0.1279800000 1 1 1 mag 0.0 
0.2500000000 0.0000000000 0.1919600000 1 1 1 mag 0.0 
0.5000000000 0.0000000000 0.0000000000 0 0 0 mag 0.0 
0.8333300000 0.1666700000 0.0639900000 0 0 0 mag 0.0 
0.6666700000 0.3333300000 0.1279800000 1 1 1 mag 0.0 
0.5000000000 0.0000000000 0.1919600000 1 1 1 mag 0.0 
0.5000000000 0.2500000000 0.0000000000 0 0 0 mag 0.0 
0.8333300000 0.4166700000 0.0639900000 0 0 0 mag 0.0 
0.6666700000 0.0833300000 0.1279800000 1 1 1 mag 0.0 
0.5000000000 0.2500000000 0.1919600000 1 1 1 mag 0.0 
0.7500000000 0.2500000000 0.0000000000 0 0 0 mag 0.0 
0.5833300000 0.4166700000 0.0639900000 0 0 0 mag 0.0 
0.9166700000 0.0833300000 0.1279800000 1 1 1 mag 0.0 
0.7500000000 0.2500000000 0.1919600000 1 1 1 mag 0.0 
0.7500000000 0.0000000000 0.0000000000 0 0 0 mag 0.0 
0.5833300000 0.1666700000 0.0639900000 0 0 0 mag 0.0 
0.9166700000 0.3333300000 0.1279800000 1 1 1 mag 0.0 
0.7500000000 0.0000000000 0.1919600000 1 1 1 mag 0.0 
0.0000000000 0.5000000000 0.0000000000 0 0 0 mag 0.0 
0.3333300000 0.6666700000 0.0639900000 0 0 0 mag 0.0 
0.1666700000 0.8333300000 0.1279800000 1 1 1 mag 0.0 
0.0000000000 0.5000000000 0.1919600000 1 1 1 mag 0.0 
0.0000000000 0.7500000000 0.0000000000 0 0 0 mag 0.0 
0.3333300000 0.9166700000 0.0639900000 0 0 0 mag 0.0 
0.1666700000 0.5833300000 0.1279800000 1 1 1 mag 0.0 
0.0000000000 0.7500000000 0.1919600000 1 1 1 mag 0.0 
0.2500000000 0.7500000000 0.0000000000 0 0 0 mag 0.0 
0.0833300000 0.9166700000 0.0639900000 0 0 0 mag 0.0 
0.4166700000 0.5833300000 0.1279800000 1 1 1 mag 0.0 
0.2500000000 0.7500000000 0.1919600000 1 1 1 mag 0.0 
0.2500000000 0.5000000000 0.0000000000 0 0 0 mag 0.0 
0.0833300000 0.6666700000 0.0639900000 0 0 0 mag 0.0 
0.4166700000 0.8333300000 0.1279800000 1 1 1 mag 0.0 
0.2500000000 0.5000000000 0.1919600000 1 1 1 mag 0.0 
0.5000000000 0.5000000000 0.0000000000 0 0 0 mag 0.0 
0.8333300000 0.6666700000 0.0639900000 0 0 0 mag 0.0 
0.6666700000 0.8333300000 0.1279800000 1 1 1 mag 0.0 
0.5000000000 0.5000000000 0.1919600000 1 1 1 mag 0.0 
0.5000000000 0.7500000000 0.0000000000 0 0 0 mag 0.0 
0.8333300000 0.9166700000 0.0639900000 0 0 0 mag 0.0 
0.6666700000 0.5833300000 0.1279800000 1 1 1 mag 0.0 
0.5000000000 0.7500000000 0.1919600000 1 1 1 mag 0.0 
0.7500000000 0.7500000000 0.0000000000 0 0 0 mag 0.0 
0.5833300000 0.9166700000 0.0639900000 0 0 0 mag 0.0 
0.9166700000 0.5833300000 0.1279800000 1 1 1 mag 0.0 
0.7500000000 0.7500000000 0.1919600000 1 1 1 mag 0.0 
0.7500000000 0.5000000000 0.0000000000 0 0 0 mag 0.0 
0.5833300000 0.6666700000 0.0639900000 0 0 0 mag 0.0 
0.9166700000 0.8333300000 0.1279800000 1 1 1 mag 0.0 
0.7500000000 0.5000000000 0.1919600000 1 1 1 mag 0.0 

C
0.0000000000
1
0.5016300000 0.4958500000 0.2568400000 1 1 1 mag 0.0 

O
0.0000000000
1
0.5011600000 0.5051600000 0.2925600000 1 1 1 mag 0.0 

